#=======================================================
# FHI-aims file: relax_geometryin/CENXUO_geometry.in
# Created using the Atomic Simulation Environment (ASE)
# Fri Oct 18 14:36:26 2024
#=======================================================
lattice_vector 20.1841000000000008 0.0000000000000000 0.0000000000000000 
lattice_vector 0.0000000000000000 11.2554999999999996 0.0000000000000000 
lattice_vector -1.6466253258152534 0.0000000000000000 11.3120840134072456 
atom 7.6265049191832963 0.4039598950000000 2.5628657540775457 C
atom 11.7342824179090783 6.0317098949999997 3.0931762526260775 C
atom 10.9109697550014513 10.8515401049999998 8.7492182593296999 C
atom 6.8031922562756701 5.2237901050000000 8.2189077607811676 C
atom 8.2084258398937546 10.9913334149999997 3.6318576933445303 C
atom 11.1523614971986191 5.3635834149999999 2.0241843133590924 C
atom 10.3290488342909939 0.2641665850000000 7.6802263200627152 C
atom 7.3851131769861276 5.8919165849999997 9.2878997000481540 C
atom 9.5969500313365987 11.0200349399999986 3.8768774330749314 C
atom 9.7638373057557786 5.3922849399999997 1.7791645736286916 C
atom 8.9405246428481515 0.2354650600000000 7.4352065803323137 C
atom 8.7736373684289717 5.8632150599999999 9.5329194397785546 C
atom 10.4216951743127169 0.4507827750000000 3.0184033772974557 C
atom 8.9390921627796587 6.0785327750000002 2.6376386294061671 C
atom 8.1157794998720316 10.8047172249999992 8.2936806361097908 C
atom 9.5983825114050898 5.1769672250000003 8.6744453840010785 C
atom 9.8914695778347177 1.1417579200000001 1.8979414557694678 C
atom 9.4693177592576578 6.7695079199999997 3.7581005509341554 C
atom 8.6460050963500308 10.1137420799999997 9.4141425576377777 C
atom 9.0681569149270906 4.4859920799999999 7.5539834624730906 C
atom 10.7780116221458009 1.7940141450000000 1.0017981602273456 C
atom 8.5827757149465729 7.4217641450000000 4.6542438464762768 C
atom 7.7594630520389458 9.4614858549999994 10.3102858531799004 C
atom 9.9546989592381756 3.8337358550000000 6.6578401669309679 C
atom 8.6555010816514208 2.4269109100000001 11.1917234395045924 C
atom 9.0586609296257006 8.0546609100000008 5.7764025806062760 C
atom 9.8819735925333276 8.8285890899999995 0.1203605739026531 C
atom 9.4788137445590461 3.2008390900000001 5.5356814328009696 C
atom 7.2676593580951705 2.5010846549999997 10.9766807224097214 C
atom 10.4465026531819500 8.1288346550000004 5.9914452977011470 C
atom 11.2698153160895771 8.7544153450000000 0.3354032909975248 C
atom 8.0909720210027967 3.1266653449999997 5.3206387157060977 C
atom 7.9981936979325479 1.9359459999999997 0.5404913741605982 C
atom 11.3625936391598277 7.5636960000000002 5.1155506325430249 C
atom 10.5392809762522006 9.3195539999999983 10.7715926392466468 C
atom 7.1748810350249208 3.6918039999999999 6.1965333808642216 C
atom 8.4638923110530264 1.1652819150000000 1.6646862834130105 C
atom 10.8968950260393473 6.7930319150000003 3.9913557232906123 C
atom 10.0735823631317203 10.0902180850000001 9.6473977299942355 C
atom 7.6405796481454002 4.4624680849999994 7.3207282901166328 C
atom 6.1533922596587489 0.2294996450000000 2.3554021332716566 C
atom 13.2073950774336275 5.8572496450000004 3.3006398734319657 C
atom 12.3840824145260004 11.0260003549999990 8.9566818801355890 C
atom 5.3300795967511219 5.3982503549999992 8.0114441399752785 C
atom 5.2481077060935570 1.1969098700000000 2.8090167022092873 C
atom 14.1126796309988176 6.8246598699999996 2.8470253044943359 C
atom 13.2893669680911906 10.0585901299999989 8.5030673111979578 C
atom 4.4247950431859300 4.4308401300000000 8.4650587089129097 C
atom 3.8939115033710197 1.1269006600000000 2.5042691588880959 C
atom 15.4668758337213568 6.7546506599999994 3.1517728478155265 C
atom 14.6435631708137297 10.1285993399999992 8.8078148545191493 C
atom 3.0705988404633926 4.5008493400000003 8.1603111655917182 C
atom 3.3826257040720704 0.0728230850000000 1.7334637542145261 C
atom 15.9781616330203029 5.7005730849999994 3.9225782524890964 C
atom 15.1548489701126758 11.1826769150000001 9.5786202591927196 C
atom 2.5593130411644438 5.5549269150000002 7.3895057609181496 C
atom 4.2654080390603166 10.2815615850000004 1.3345996719017867 C
atom 15.0953792980320589 4.6538115849999997 4.3214423348018363 C
atom 14.2720666351244319 0.9739384149999999 9.9774843415054590 C
atom 3.4420953761526900 6.6016884149999999 6.9906416786054093 C
atom 2.0135737387306185 0.0311777350000000 1.3200070835244915 C
atom 17.3472135983617548 5.6589277350000007 4.3360349231791311 C
atom 16.5239009354541260 11.2243222649999996 9.9920769298827548 C
atom 1.1902610758229917 5.5965722649999998 6.9760490902281136 C
atom 1.5443239945619955 10.2656913299999992 0.5446768452455588 C
atom 17.8164633425303798 4.6379413299999994 5.1113651614580640 C
atom 16.9931506796227545 0.9898086700000001 10.7674071681616859 C
atom 0.7210113316543687 6.6175586700000002 6.2007188519491816 C
atom 2.4007708952205431 9.1965313850000001 0.1312201745555240 C
atom 16.9600164418718293 3.5687813850000003 5.5248218321480991 C
atom 16.1367037789642040 2.0589686149999999 11.1808638388517210 C
atom 1.5774582323129160 7.6867186150000002 5.7872621812591474 C
atom 3.7721413914911941 9.2099254300000002 0.5384551990381850 C
atom 15.5886459456011792 3.5821754299999999 5.1175868076654378 C
atom 14.7653332826935522 2.0455745699999999 10.7736288143690615 C
atom 2.9488287285835670 7.6733245700000001 6.1944972057418077 C
atom 0.2927273402271455 8.1439170250000004 10.6335852142830785 C
atom 17.4214346710499761 2.5161670250000001 6.3345408058277899 C
atom 18.2447473339576014 3.1115829749999997 0.6784987991241666 C
atom 1.1160400031347721 8.7393329749999999 4.9775432075794566 C
atom 1.1556256961445897 7.1275453749999995 10.2284994857629652 C
atom 16.5585363151325318 1.4997953749999999 6.7396265343479032 C
atom 17.3818489780401570 4.1279546250000001 1.0835845276442801 C
atom 1.9789383590522163 9.7557046249999999 4.5724574790593433 C
atom 2.4969113211320342 7.1340735649999996 10.6108479254161310 C
atom 15.2172506901450877 1.5063235650000000 6.3572780946947383 C
atom 16.0405633530527147 4.1214264350000001 0.7012360879911151 C
atom 3.3202239840396608 9.7491764349999990 4.9548059187125073 C
atom 4.6484664724885896 8.1629388199999990 0.1132339609742065 C
atom 14.7123208646037842 2.5351888199999997 5.5428080457294158 C
atom 13.8890082016961589 3.0925611800000001 11.1988500524330394 C
atom 3.8251538095809625 8.7203111799999995 5.7692759676778289 C
atom 6.0154144857835501 8.2084110399999997 0.5369846281164419 C
atom 13.3453728513088237 2.5806610399999999 5.1190573785871809 C
atom 12.5220601884011984 3.0470889600000000 10.7750993852908028 C
atom 5.1921018228759239 8.6748389599999989 6.1930266348200647 C
atom 6.4954447570469123 9.2548348750000002 1.2743062641103262 C
atom 12.8653425800454624 3.6270848749999995 4.3817357425932970 C
atom 12.0420299171378353 2.0006651249999998 10.0377777492969198 C
atom 5.6721320941392852 7.6284151249999992 6.9303482708139494 C
atom 5.6539946742597946 10.3439170550000004 1.6748671590250768 C
atom 13.7067926628325800 4.7161670549999997 3.9811748476785458 C
atom 12.8834799999249530 0.9115829450000000 9.6372168543821690 C
atom 4.8306820113521676 6.5393329450000000 7.3309091657286993 C
atom 6.5701241015622633 2.2909444699999999 0.2842726712569241 C
atom 12.7906632355301131 7.9186944700000002 5.3717693354466984 C
atom 11.9673505726224860 8.9645555299999984 11.0278113421503221 C
atom 5.7468114386546372 3.3368055299999999 5.9403146779605471 C
atom 6.0589024576663624 3.4628671299999998 0.8622070435019002 C
atom 13.3018848794260123 9.0906171300000000 4.7938349632017223 C
atom 12.4785722165183870 7.7926328699999994 10.4498769699053451 C
atom 5.2355897947587353 2.1648828700000000 6.5182490502055224 C
atom 4.7458449475905615 3.8646884799999999 0.6478430514478329 C
atom 14.6149423895018131 9.4924384799999988 5.0081989552557902 C
atom 13.7916297265941861 7.3908115199999997 10.6642409619594130 C
atom 3.9225322846829345 1.7630615199999999 6.3038850581514563 C
atom 2.2417973249286165 3.1044920100000000 11.1473800701720354 C
atom 15.4723646863485040 8.7322420099999984 5.8207459499388321 C
atom 16.2956773492561311 8.1510079900000001 0.1647039432352095 C
atom 3.0651099878362436 2.5232579899999998 5.4913380634684135 C
atom 2.7582813359544720 1.9371841050000000 10.5041749731697003 C
atom 14.9558806753226481 7.5649341049999999 6.4639510469411690 C
atom 15.7791933382302751 9.3183158949999996 0.8079090402375454 C
atom 3.5815939988620986 3.6905658950000002 4.8481329664660775 C
atom 0.8696588101247452 3.4589277050000002 10.9409345369273545 C
atom 16.8445032011523743 9.0866777049999996 6.0271914831835147 C
atom 17.6678158640600032 7.7965722949999998 0.3711494764798917 C
atom 1.6929714730323719 2.1688222950000000 5.2848925302237308 C
atom 0.0695253895908375 2.7170776999999999 10.1175279415914403 C
atom 17.6446366216862849 8.3448276999999997 6.8505980785194280 C
atom 18.4679492845939102 8.5384223000000006 1.1945560718158050 C
atom 0.8928380524984642 2.9106722999999999 4.4614859348878175 C
atom 0.5637134794768449 1.5530338899999998 9.4444589427937089 C
atom 17.1504485318002757 7.1807838899999998 7.5236670773171594 C
atom 17.9737611947079010 9.7024661099999996 1.8676250706135362 C
atom 1.3870261423844716 4.0747161099999998 3.7884169360900861 C
atom 1.9201089138710674 1.1598792750000000 9.6564473972049605 C
atom 15.7940530974060547 6.7876292749999996 7.3116786229059079 C
atom 16.6173657603136817 10.0956207249999999 1.6556366162022844 C
atom 2.7434215767786942 4.4678707250000000 4.0004053905013386 C
atom -0.2481861625096933 0.7739281800000000 8.6020480463152715 C
atom 17.9623481737868147 6.4016781800000002 8.3660779737955959 C
atom 18.7856608366944400 10.4815718199999992 2.7100359670919740 C
atom 0.5751265003979336 4.8538218200000003 2.9460060396116488 C
atom 0.2556423441494934 10.8839559450000003 7.9889330927885993 C
atom 17.4585196671276250 5.2562059449999996 8.9791929273222681 C
atom 18.2818323300352539 0.3715440550000000 3.3231509206186463 C
atom 1.0789550070571201 5.9992940550000000 2.3328910860849761 C
atom 1.5703974310819357 10.4771821749999994 8.2082744018085663 C
atom 16.1437645801951852 4.8494321749999996 8.7598516183023030 C
atom 16.9670772431028105 0.7783178250000000 3.1038096115986802 C
atom 2.3937100939895628 6.4060678250000000 2.5522323951049426 C
atom 2.4228735356288764 11.2324262249999993 9.0312285137839421 C
atom 15.2912884756482459 5.6046762249999995 7.9368975063269254 C
atom 16.1146011385558730 0.0230737750000000 2.2808554996233030 C
atom 3.2461861985365030 5.6508237750000001 3.3751865070803202 C
atom 3.7887320916190865 10.8632458249999999 9.2572439523718195 C
atom 13.9254299196580344 5.2354958250000001 7.7108820677390488 C
atom 14.7487425825656597 0.3922541750000000 2.0548400610354260 C
atom 4.6120447545267131 6.0200041750000004 3.6012019456681967 C
atom 4.5967309948306907 0.3631024300000000 10.0571214129598445 C
atom 13.1174310164464298 5.9908524299999995 6.9110046071510229 C
atom 13.9407436793540569 10.8923975700000000 1.2549626004473997 C
atom 5.4200436577383178 5.2646475699999993 4.4010794062562235 C
atom 4.1126132075498223 1.5386268499999998 10.7178602401829632 C
atom 13.6015488037272991 7.1663768500000007 6.2502657799279051 C
atom 14.4248614666349244 9.7168731499999996 0.5942237732242827 C
atom 4.9359258704574493 4.0891231499999998 5.0618182334793396 C
atom 7.5639884079313067 10.4078482949999991 4.2902209829248319 H
atom 11.7967989291610671 4.7800982950000002 1.3658210237787909 H
atom 10.9734862662534400 0.8476517050000000 7.0218630304824128 H
atom 6.7406757450236796 6.4754017049999995 9.9462629896284547 H
atom 10.0053291250755159 10.4779700599999988 4.7278855134035584 H
atom 9.3554582120168579 4.8502200599999998 0.9281564933000644 H
atom 8.5321455491092326 0.7775299400000000 6.5841985000036871 H
atom 9.1820164621678888 6.4052799399999998 10.3839275201071821 H
atom 11.5022346508164652 0.4673283600000000 3.1745101366824753 H
atom 7.8585526862759068 6.0950783599999996 2.4815318700211475 H
atom 7.0352400233682806 10.7881716399999998 8.1375738767247690 H
atom 10.6789219879088382 5.1604216400000000 8.8305521433860985 H
atom 11.8462158045977919 1.7837716400000001 1.2204607442065076 H
atom 7.5145715324945819 7.4115216399999992 4.4355812624971156 H
atom 6.6912588695869548 9.4717283600000002 10.0916232692007366 H
atom 11.0229031416901648 3.8439783599999999 6.8765027509101309 H
atom 9.3239741641052234 2.9219277999999997 10.4902611098332095 H
atom 8.3901878471718945 8.5496777999999996 6.4778649102776589 H
atom 9.2135005100795215 8.3335721999999990 0.8218229035740364 H
atom 10.1472868270128505 2.7058222000000001 4.8342191031295867 H
atom 6.8954092857658997 3.0625089950000000 10.1201297209145249 H
atom 10.8187527255112190 8.6902589950000007 6.8479962991963435 H
atom 11.6420653884188461 8.1929910049999997 1.1919542924927216 H
atom 7.7187219486735268 2.5652410049999999 4.4640877142109012 H
atom 5.6221421515829952 2.0541287499999998 3.3648925106281191 H
atom 13.7386451855093785 7.6818787500000001 2.2911494960755037 H
atom 12.9153325226017515 9.2013712499999993 7.9471915027791269 H
atom 4.7988294886753691 3.5736212500000000 9.0209345173317406 H
atom 3.2248503113133555 1.9240151700000001 2.8187450944608177 H
atom 16.1359370257790182 7.5517651699999995 2.8372969122428051 H
atom 15.3126243628713912 9.3314848299999991 8.4933389189464279 H
atom 2.4015376484057289 3.7037348300000001 8.4747871011644396 H
atom 1.3568609909596714 0.8485521450000000 1.6245283851654144 H
atom 18.0039263461327046 6.4763021449999991 4.0315136215382079 H
atom 17.1806136832250758 10.4069478550000003 9.6875556282418316 H
atom 0.5335483280520448 4.7791978549999996 7.2805703918690376 H
atom 0.5052653874910891 10.2494834099999999 0.2173051338975532 H
atom 18.8555219496012860 4.6217334100000000 5.4387368728060697 H
atom 18.0322092866936607 1.0060165900000000 11.0947788795096933 H
atom -0.3180472754165376 6.6337665899999996 5.8733471406011750 H
atom -0.7523812157021579 8.1409905949999999 10.3186567953498205 H
atom 18.4665432269792795 2.5132405949999996 6.6494692247610470 H
atom 19.2898558898869048 3.1145094050000002 0.9934272180574243 H
atom 0.0709314472054689 8.7422594050000004 4.6626147886461986 H
atom 0.7877550157534016 6.3182749249999999 9.5997738562977908 H
atom 16.9264069955237204 0.6905249250000000 7.3683521638130776 H
atom 17.7497196584313457 4.9372250749999997 1.7123101571094548 H
atom 1.6110676786610283 10.5649750749999995 3.9437318495941680 H
atom 3.1631489147891987 6.3393227100000002 10.2755577552587400 H
atom 14.5510130964879227 0.7115727100000000 6.6925682648521283 H
atom 15.3743257593955480 4.9161772900000003 1.0365262581485060 H
atom 3.9864615776968253 10.5439272899999992 4.6195157485551173 H
atom 6.6763589554037450 7.3884478649999989 0.2463771898120098 H
atom 12.6844283816886296 1.7606978650000000 5.4096648168916124 H
atom 11.8611157187810026 3.8670521349999998 11.0657068235952352 H
atom 5.8530462924961180 9.4948021350000005 5.9024191965156332 H
atom 7.5397778463020311 9.2801597499999993 1.5779225990301766 H
atom 11.8210094907903436 3.6524097499999999 4.0781194076734462 H
atom 10.9976968278827183 1.9753402499999999 9.7341614143770681 H
atom 6.7164651833944040 7.6030902499999993 7.2339646057337994 H
atom 6.6985986975084240 4.0444388149999995 1.5273575834902464 H
atom 12.6621886395839489 9.6721888150000002 4.1286844232133770 H
atom 11.8388759766763236 7.2110611849999993 9.7847264299169989 H
atom 5.8752860346007969 1.5833111849999999 7.1833995901938694 H
atom 4.3637884986977982 4.7619769400000003 1.1301903137795180 H
atom 14.9969988383945747 10.3897269399999992 4.5258516929241051 H
atom 14.1736861754869476 6.4935230599999993 10.1818936996277269 H
atom 3.5404758357901711 0.8657730600000000 6.7862323204831414 H
atom 2.1255473836284371 4.3379822550000000 0.1430978627696017 H
atom 17.2352399534639389 9.9657322550000007 5.5129441439340212 H
atom 16.4119272905563101 6.9175177449999996 11.1689861506376431 H
atom 1.3022347207208105 1.2897677450000000 5.7991398694732252 H
atom -0.9743448899259447 2.9902486850000001 9.9618736655669569 H
atom 18.6885069012030662 8.6179986849999999 7.0062523545439115 H
atom 19.5118195641106915 8.2652513150000004 1.3502103478402887 H
atom -0.1510322270183180 2.6375013150000002 4.3058316588633341 H
atom 18.8991371971094928 1.0705106049999999 8.4503529996954807 H
atom -1.1849751858323696 6.6982606049999998 8.5177730204153868 H
atom -0.3616625229247428 10.1849893949999988 2.8617310137117649 H
atom 19.7224498600171181 4.5572393949999999 2.7943109929918575 H
atom -0.3847576986217680 10.2996829400000003 7.3300041990076270 H
atom 18.0989197098988868 4.6719329399999996 9.6381218211032422 H
atom 18.9222323728065156 0.9558170599999999 3.9820798143996186 H
atom 0.4385549642858587 6.5835670600000000 1.6739621923040042 H
atom 1.9468044023361002 9.5653741199999995 7.7480988241431588 H
atom 15.7673576089410208 3.9376241199999997 9.2200271959677096 H
atom 16.5906702718486478 1.6901258799999999 3.5639851892640868 H
atom 2.7701170652437268 7.3178758799999990 2.0920568174395360 H
atom 4.1673412948489421 9.9566153000000011 8.7805527320468375 H
atom 13.5468207164281793 4.3288652999999995 8.1875732880640300 H
atom 14.3701333793358064 1.2988846999999999 2.5315312813604072 H
atom 4.9906539577565683 6.9266346999999993 3.1245107253432156 H
atom 5.6310589270272962 0.0738360800000000 10.2325718360077911 H
atom 12.0831030842498244 5.7015860800000002 6.7355541841030764 H
atom 12.9064157471574514 11.1816639200000001 1.0795121773994534 H
atom 6.4543715899349232 5.5539139199999994 4.5765298293041692 H
