#=======================================================
# FHI-aims file: relax_geometryin/ANTCEN_geometry.in
# Created using the Atomic Simulation Environment (ASE)
# Fri Oct 18 14:36:27 2024
#=======================================================
lattice_vector 8.3985000000000003 0.0000000000000000 0.0000000000000000 
lattice_vector 0.0000000000000000 5.9058999999999999 0.0000000000000000 
lattice_vector -6.4019409206389160 0.0000000000000000 9.0904452420466697 
atom -1.6175895188078238 0.1581600020000000 3.3552833388394254 C
atom -0.5851014018310923 3.1111100020000002 5.7351619032072438 C
atom 3.6141485981689079 5.7477399980000001 5.7351619032072438 C
atom 2.5816604811921766 2.7947899979999997 3.3552833388394254 C
atom -0.7927275896328771 0.9310651350000001 2.5735050480234123 C
atom -1.4099633310060387 3.8840151349999998 6.5169401940232570 C
atom 2.7892866689939608 4.9748348650000001 6.5169401940232570 C
atom 3.4065224103671237 2.0218848650000001 2.5735050480234123 C
atom -0.3876963202142124 0.4894809919999999 1.2778438876745004 C
atom -1.8149946004247033 3.4424309919999998 7.8126013543721697 C
atom 2.3842553995752969 5.4164190080000001 7.8126013543721697 C
atom 3.8115536797857876 2.4634690080000001 1.2778438876745004 C
atom 0.4283963548886930 1.2670517860000001 0.4454318168602868 C
atom -2.6310872755276087 4.2200017860000001 8.6450134251863826 C
atom 1.5681627244723915 4.6388482140000002 8.6450134251863826 C
atom 4.6276463548886930 1.6858982139999998 0.4454318168602868 C
atom 7.5699862006872589 5.0963192280000005 0.8186854984987231 C
atom -1.3741771213261742 2.1433692280000001 8.2717597435479462 C
atom -5.5734271213261746 0.8095807720000000 8.2717597435479462 C
atom 3.3707362006872592 3.7625307719999999 0.8186854984987231 C
atom 6.7264693036560930 4.3212879709999994 1.6661877084147341 C
atom -0.5306602242950087 1.3683379710000001 7.4242575336319359 C
atom -4.7299102242950095 1.5846120289999999 7.4242575336319359 C
atom 2.5272193036560933 4.5375620290000001 1.6661877084147341 C
atom 6.3281002852342843 4.7950592690000002 2.8927614849240912 C
atom -0.1322912058732005 1.8421092690000000 6.1976837571225794 C
atom -4.3315412058732008 1.1108407310000001 6.1976837571225794 C
atom 2.1288502852342845 4.0637907310000001 2.8927614849240912 C
atom -1.9213367461473032 0.5180064890000000 4.3381422784095118 H
atom -0.2813541744916125 3.4709564889999998 4.7523029636371579 H
atom 3.9178958255083876 5.3878935110000006 4.7523029636371579 H
atom 2.2779132538526969 2.4349435109999997 4.3381422784095118 H
atom -0.4403135253511266 1.9008729739999999 2.9242144254615727 H
atom -1.7623773952877899 4.8538229739999998 6.1662308165850970 H
atom 2.4368726047122107 4.0050270259999996 6.1662308165850970 H
atom 3.7589364746488734 1.0520770259999999 2.9242144254615727 H
atom 0.7672543208123505 2.2440057640000002 0.7917777805822649 H
atom -2.9699452414512666 5.1969557640000001 8.2986674614644045 H
atom 1.2293047585487340 3.6618942360000002 8.2986674614644045 H
atom 4.9665043208123505 0.7089442360000000 0.7917777805822649 H
atom 6.3944147703257705 3.3449836419999999 1.3179327511919261 H
atom -0.1986056909646862 0.3920336420000000 7.7725124908547434 H
atom -4.3978556909646862 2.5609163580000001 7.7725124908547434 H
atom 2.1951647703257700 5.5138663579999996 1.3179327511919261 H
atom 5.6679027063060738 4.1906494629999997 3.5160933151712315 H
atom 0.5279063730550108 1.2376994630000000 5.5743519268754387 H
atom -3.6713436269449899 1.7152505370000002 5.5743519268754387 H
atom 1.4686527063060737 4.6682005369999997 3.5160933151712315 H
