#=======================================================
# FHI-aims file: relax_geometryin/ABECAL_geometry.in
# Created using the Atomic Simulation Environment (ASE)
# Fri Oct 18 14:36:25 2024
#=======================================================
lattice_vector 9.8048999999999999 0.0000000000000000 0.0000000000000000 
lattice_vector 0.0000000000000000 7.8291000000000004 0.0000000000000000 
lattice_vector -0.5446185642950260 0.0000000000000000 22.4092829744600515 
atom 6.1116685276596678 1.7502735960000002 0.4567011870194958 C
atom 8.3233721901928206 5.6648235959999997 10.7479403002105300 C
atom 3.1486129080453065 6.0788264040000008 21.9525817874405575 C
atom 0.9369092455121544 2.1642764040000002 11.6613426742495214 C
atom 5.5472649162343055 2.4941946779999999 1.4989569381616330 C
atom 8.8877758016181811 6.4087446779999997 9.7056845490683923 C
atom 3.7130165194706688 5.3349053220000009 20.9103260362984180 C
atom 0.3725056340867927 1.4203553220000000 12.7035984253916592 C
atom 4.8382902655396931 1.4421202200000001 21.7105615313163867 C
atom 9.0521318880177670 5.3566702200000007 11.9033629303736905 C
atom 4.4219911701652812 6.3869797799999999 0.6987214431436644 C
atom 0.2081495476872059 2.4724297800000001 10.5059200440863609 C
atom 3.5286600292076105 1.8602724509999999 21.5649011919823970 C
atom 0.5568621243498505 5.7748224510000004 12.0490232697076820 C
atom 5.7316214064973625 5.9688275490000002 0.8443817824776547 C
atom 8.7034193113551233 2.0542775490000000 10.3602597047523712 C
atom 3.4461617100599216 2.6012184750000000 0.1882379769854644 C
atom 1.1839790077925654 6.5157684750000007 11.0164035102445617 C
atom 5.8141197256450523 5.2278815249999999 22.2210449974745892 C
atom 8.0763024279124096 1.3133315250000002 11.3928794642154898 C
atom 2.1107827806610477 3.0740961150000001 0.0571436715848731 C
atom 2.5193579371914394 6.9886461150000008 11.1474978156451527 C
atom 7.1494986550439270 4.7550038849999998 22.3521393028751767 C
atom 6.7409234985135340 0.8404538850000001 11.2617851588149005 C
atom 1.5194318738667727 3.8159816310000001 1.0624241058191510 C
atom 3.1107088439857136 7.7305316310000007 10.1422173814108749 C
atom 7.7408495618382016 4.0131183689999999 21.3468588686409007 C
atom 6.1495725917192594 0.0985683690000000 12.2670655930491765 C
atom 2.2375587455234314 4.1257008270000002 2.2277068204910737 C
atom 2.3925819723290558 0.2111508270000000 8.9769346667389520 C
atom 7.0227226901815420 3.7033991730000002 20.1815761539689795 C
atom 6.8676994633759190 7.6179491730000004 13.4323483077210994 C
atom 3.5557956150635035 3.6979188030000003 2.3984655567564594 C
atom 1.0743451027889834 7.6124688030000005 8.8061759304735663 C
atom 5.7044858206414704 4.1311811970000001 20.0108174177035920 C
atom 8.1859363329159898 0.2166311970000000 13.6031070439864834 C
atom 4.2918110095221600 4.0741853490000004 3.5700228706612309 C
atom 0.3383297083303276 0.1596353490000000 7.6346186165687948 C
atom 4.9684704261828143 3.7549146510000000 18.8392601037988214 C
atom 8.9219517273746476 7.6694646510000002 14.7746643578912558 C
atom 5.6005587871958147 3.7023813900000002 3.7116495390598181 C
atom 8.8344819306566720 7.6169313900000004 7.4929919481702072 C
atom 3.6597226485091592 4.1267186100000002 18.6976334354002311 C
atom 0.4257995050483018 0.2121686100000000 14.9162910262898460 C
atom 6.5471610838422380 3.9694319910000000 4.7550257543506778 C
atom 7.8878796340102495 0.0548819910000000 6.4496157328793480 C
atom 2.7131203518627354 3.8596680090000000 17.6542572201093719 C
atom 1.3724018016947255 7.7742180090000010 15.9596672415807035 C
atom 7.7536415648709589 3.3791178510000002 4.3964772267593180 C
atom 6.6813991529815286 7.2936678510000004 6.8081642604707087 C
atom 1.5066398708340150 4.4499821490000002 18.0128057477007353 C
atom 2.5788822827234461 0.5354321490000000 15.6011187139893419 C
atom 7.5781336150431411 2.7235090170000000 3.0974110927298684 C
atom 6.8569071028093456 6.6380590170000007 8.1072303945001565 C
atom 1.6821478206618325 5.1055909829999999 19.3118718817301840 C
atom 2.4033743328956283 1.1910409829999999 14.3020525799598950 C
atom 4.1841653684220734 2.9157134220000001 1.3707758395477214 C
atom 0.4459753494304138 6.8302634219999998 9.8338656476823036 C
atom 5.0761160672829009 4.9133865780000008 21.0385071349123329 C
atom 8.8143060862745592 0.9988365780000000 12.5754173267777460 C
atom 6.2760138276385300 2.9049092640000000 2.6790297795966991 C
atom 8.1590268902139584 6.8194592640000007 8.5256117076333275 C
atom 2.9842676080664439 4.9241907359999999 19.7302531948633515 C
atom 1.1012545454910165 1.0096407359999999 13.8836712668267257 C
atom 8.9922924907864257 3.4018222410000001 5.1630987973155955 C
atom 5.4427482270660619 7.3163722409999998 6.0415426899144302 C
atom 0.2679889449185481 4.4272777590000008 17.2461841771444533 C
atom 3.8175332086389133 0.5127277590000001 16.3677402845456221 C
atom 9.0704158046289756 4.0452176790000003 6.4186909223745934 C
atom 5.3646249132235120 0.1306676790000000 4.7859505648554332 C
atom 0.1898656310759983 3.7838823210000001 15.9905920520854590 C
atom 3.8956565224814632 7.6984323210000003 17.6233324096046182 C
atom 0.4479027488586759 4.0798223010000001 7.1402698341522068 C
atom 4.1822379689938112 0.1652723010000000 4.0643716530778198 C
atom 8.8123786868462997 3.7492776989999999 15.2690131403078464 C
atom 5.0780434667111631 7.6638276990000005 18.3449113213822308 C
atom 1.6325069160801573 3.4650813690000000 6.6692267060290558 C
atom 2.9976338017723294 7.3796313690000011 4.5354147812009691 C
atom 7.6277745196248166 4.3640186309999995 15.7400562684309939 C
atom 6.2626476339326445 0.4494686310000001 17.8738681932590815 C
atom 1.5454884271411029 2.8135436670000002 5.4246151296275444 C
atom 3.0846522907113836 6.7280936670000004 5.7800263576024813 C
atom 7.7147930085638698 5.0155563330000001 16.9846678448325079 C
atom 6.1756291449935903 1.1010063330000002 16.6292566168575711 C
atom 0.3627691596366215 2.7845759970000001 4.6925038548519344 C
atom 4.2673715582158653 6.6991259970000003 6.5121376323780913 C
atom 8.8975122760683529 5.0445240030000003 17.7167791196081161 C
atom 4.9929098774891081 1.1299740030000001 15.8971453420819611 C
atom 2.8861267678323284 3.4842626640000001 7.4613948591762185 C
atom 1.7440139500201590 7.3988126640000003 3.7432466280538068 C
atom 6.3741546678726460 4.3448373360000003 14.9478881152838312 C
atom 7.5162674856848151 0.4302873360000000 18.6660363464062442 C
atom 2.9653938512936051 4.1812874370000008 8.6860621737304609 C
atom 1.6647468665588820 0.2667374370000000 2.5185793134995653 C
atom 6.2948875844113692 3.6478125630000005 13.7232208007295906 C
atom 7.5955345691460909 7.5623625629999998 19.8907036609604866 C
atom 4.1288738713229298 4.1741629560000000 9.4513391873082711 C
atom 0.5012668465295571 0.2596129560000000 1.7533022999217545 C
atom 5.1314075643820445 3.6549370440000000 12.9579437871517804 C
atom 8.7590145891754165 7.5694870440000006 20.6559806745382986 C
atom 5.2592462080989675 3.4758072360000005 9.0170472832632367 C
atom 9.1757945097535192 7.3903572360000007 2.1875942039667904 C
atom 4.0010352276060068 4.3532927639999999 13.3922356911968166 C
atom 0.0844869259514545 0.4387427640000000 20.2216887704932589 C
atom 5.2104615065832585 2.7909175680000002 7.8008954962392876 C
atom 9.2245792112692300 6.7054675680000004 3.4037459909907373 C
atom 4.0498199291217158 5.0381824320000002 14.6083874782207630 C
atom 0.0357022244357455 1.1236324320000002 19.0055369834693160 C
atom 4.0432392859970054 2.7978071760000001 7.0362907611507115 C
atom 0.5869014318554823 6.7123571760000003 4.1683507260793142 C
atom 5.2170421497079689 5.0312928240000003 15.3729922133093400 C
atom 8.6733800038494913 1.1167428239999999 18.2409322483807372 C
atom 7.1522083853380680 1.4323338450000000 0.5234808502833868 H
atom 7.2828323325144186 5.3468838449999998 10.6811606369466396 H
atom 2.1080730503669058 6.3967661550000008 21.8858021241766636 H
atom 1.9774491031905552 2.4822161550000001 11.7281223375134136 H
atom 5.3218045114706687 0.8882896860000001 20.9103260362984180 H
atom 8.5686176420867923 4.8028396860000004 12.7035984253916592 H
atom 3.9384769242343056 6.9408103140000001 1.4989569381616330 H
atom 0.6916637936181813 3.0262603140000000 9.7056845490683923 H
atom 2.9870169708709229 1.6527230100000001 20.6418628262643864 H
atom 1.0985051826865384 5.5672730100000001 12.9720616354256890 H
atom 6.2732644648340514 6.1763769900000005 1.7674201481956642 H
atom 8.1617762530184343 2.2618269899999999 9.4372213390343624 H
atom 1.0294562851431914 2.8580129550000000 21.5420437233484492 H
atom 3.0560658684142696 6.7725629550000006 12.0718807383416280 H
atom 8.2308251505617811 4.9710870450000000 0.8672392511116039 H
atom 6.2042155672907047 1.0565370450000000 10.3374022361184217 H
atom 0.4998797894481729 4.1819920560000003 0.9591173113068902 H
atom 4.1302609284043132 0.2674420560000000 10.2455241759231352 H
atom 8.7604016462568008 3.6471079440000000 21.4501656631531610 H
atom 5.1300205073006593 7.5616579440000002 12.1637587985369144 H
atom 1.7716605188696102 4.7324560770000001 3.0010511759396903 H
atom 2.8584801989828770 0.8179060770000000 8.2035903112903359 H
atom 7.4886209168353641 3.0966439230000002 19.4082317985203616 H
atom 6.4018012367220969 7.0111939230000004 14.2056926631697173 H
atom 3.7927776140787008 4.6750687740000005 4.3310421204738940 H
atom 0.8373631037737868 0.7605187740000001 6.8735993667561317 H
atom 5.4675038216262735 3.1540312260000003 18.0782408539861557 H
atom 8.4229183319311876 7.0685812260000001 15.5356836077039215 H
atom 6.3358639451689402 4.5496465920000002 5.6466911239044437 H
atom 8.0991767726835473 0.6350965920000000 5.5579503633255820 H
atom 2.9244174905360345 3.2794534080000002 16.7625918505556086 H
atom 1.1611046630214263 7.1940034080000004 16.8513326111344703 H
atom 8.3554801123461466 2.1796997309999999 2.5683279217028665 H
atom 6.0795606055063400 6.0942497310000006 8.6363135655271588 H
atom 0.9048013233588270 5.6494002690000000 19.8409550527571845 H
atom 3.1807208301986343 1.7348502690000001 13.7729694089328927 H
atom 8.1925794802613030 4.5391555979999998 6.8343831215508262 H
atom 6.2424612375911837 0.6246055980000000 4.3702583656791996 H
atom 1.0677019554436711 3.2899444020000002 15.5748998529092244 H
atom 3.0178201981137898 7.2044944020000008 18.0390246087808528 H
atom 0.4394964869899949 4.6075819320000004 8.0913198035882914 H
atom 4.1906442308624916 0.6930319320000000 3.1133216836417348 H
atom 8.8207849487149783 3.2215180680000004 14.3179631708717601 H
atom 5.0696372048424818 7.1360680680000002 19.2959612908183153 H
atom 2.4150777254790632 2.3125595579999998 5.0053374451753969 H
atom 2.2150629923734240 6.2271095580000004 6.1993040420546288 H
atom 6.8452037102259116 5.5165404420000002 17.4039455292846554 H
atom 7.0452184433315495 1.6019904420000000 16.2099789324054235 H
atom 0.3566805080622313 2.2581473130000003 3.7407816069266162 H
atom 4.2734602097902554 6.1726973130000005 7.4638598803034091 H
atom 8.9036009276427439 5.5709526870000001 18.6685013675334339 H
atom 4.9868212259147180 1.6564026870000002 14.9454230941566433 H
atom 2.1192489091089546 4.7606408370000004 9.0484202794274786 H
atom 2.5108918087435326 0.8460908370000000 2.1562212078025462 H
atom 7.1410325265960202 3.0684591630000000 13.3608626950325711 H
atom 6.7493896269614408 6.9830091630000002 20.2530617666575061 H
atom 4.1554819065334003 4.7402068860000002 10.3817726164078525 H
atom 0.4746588113190867 0.8256568860000000 0.8228688708221732 H
atom 5.1047995291715740 3.0888931140000002 12.0275103580521989 H
atom 8.7856226243858888 7.0034431140000004 21.5864141036378783 H
atom 6.1726351645882209 3.4846541190000000 9.6115655605756611 H
atom 8.2624055532642675 7.3992041190000002 1.5930759266543650 H
atom 3.0876462711167534 4.3444458810000004 12.7977174138843903 H
atom 0.9978758824407074 0.4298958810000000 20.8162070478056869 H
atom 6.0843052647802685 2.2519623240000000 7.4324868841391654 H
atom 8.3507354530722182 6.1665123240000002 3.7721546030908608 H
atom 3.1759761709247054 5.5771376760000004 14.9767960903208852 H
atom 0.9095459826327557 1.6625876760000000 18.6371283713691902 H
atom 4.0480504649548248 2.2510228320000003 6.0959972475423676 H
atom 0.5820902528976629 6.1655728320000005 5.1086442396876581 H
atom 5.2122309707501504 5.5780771680000001 16.3132857269176839 H
atom 8.6781911828073106 1.6635271680000001 17.3006387347723951 H
