#=======================================================
# FHI-aims file: relax_geometryin/TERPHE02_geometry.in
# Created using the Atomic Simulation Environment (ASE)
# Fri Oct 18 14:36:25 2024
#=======================================================
lattice_vector 7.7244999999999999 0.0000000000000000 0.0000000000000000 
lattice_vector 0.0000000000000000 5.5510000000000002 0.0000000000000000 
lattice_vector -0.8967926334133920 0.0000000000000000 13.5189879304131146 
atom 0.3159522041500644 1.0566328500000000 0.8334456059099685 C
atom 2.6495051624365438 3.8321328500000003 12.6855423245031460 C
atom 6.5117551624365433 4.4943671500000004 12.6855423245031460 C
atom 4.1782022041500646 1.7188671499999999 0.8334456059099685 C
atom 7.2736353281725785 0.0023314200000000 1.3656881607303328 C
atom 3.4163220384140285 2.7778314200000001 12.1532997696827820 C
atom -0.4459279615859711 5.5486685800000002 12.1532997696827820 C
atom 3.4113853281725790 2.7731685800000001 1.3656881607303328 C
atom -0.1433522449475171 1.0546900000000001 13.0335210738319791 C
atom 3.1088096115341251 3.8301900000000000 0.4854668565811349 C
atom 6.9710596115341250 4.4963100000000003 0.4854668565811349 C
atom 3.7188977550524824 1.7208100000000000 13.0335210738319791 C
atom 6.8141723556548941 0.0039967200000000 2.7759889816310288 C
atom 3.8757850109317142 2.7794967200000005 10.7429989487820858 C
atom 0.0135350109317139 5.5470032800000002 10.7429989487820858 C
atom 2.9519223556548946 2.7715032800000001 2.7759889816310288 C
atom 7.1538676497556439 1.0468075800000001 3.6625642101075209 C
atom 3.5360897168309644 3.8223075799999999 9.8564237203055924 C
atom -0.3261602831690358 4.5041924199999999 9.8564237203055924 C
atom 3.2916176497556440 1.7286924200000000 3.6625642101075209 C
atom 6.7423943029224294 1.0278786700000000 4.9933733819773884 C
atom 3.9475630636641781 3.8033786699999999 8.5256145484357262 C
atom 0.0853130636641785 4.5231213300000004 8.5256145484357262 C
atom 2.8801443029224294 1.7476213300000001 4.9933733819773884 C
atom 5.9720323620348594 5.5214131700000006 5.4835718843341672 C
atom 4.7179250045517476 2.7459131700000001 8.0354160460789466 C
atom 0.8556750045517481 0.0295868300000000 8.0354160460789466 C
atom 2.1097823620348599 2.8050868299999996 5.4835718843341672 C
atom 5.6081632306893265 4.4889271700000002 4.6167343782360790 C
atom 5.0817941358972814 1.7134271700000001 8.9022535521770365 C
atom 1.2195441358972816 1.0620728300000000 8.9022535521770365 C
atom 1.7459132306893266 3.8375728300000000 4.6167343782360790 C
atom 6.0267541207011952 4.5042479300000000 3.2880882444350776 C
atom 4.6632032458854136 1.7287479299999999 10.2308996859780379 C
atom 0.8009532458854131 1.0467520699999999 10.2308996859780379 C
atom 2.1645041207011948 3.8222520700000002 3.2880882444350776 C
atom 0.5866040498343944 1.9081007400000001 1.4531560126401057 H
atom 2.3788533167522137 4.6836007400000002 12.0658319177730089 H
atom 6.2411033167522127 3.6428992599999996 12.0658319177730089 H
atom 4.4488540498343951 0.8673992600000001 1.4531560126401057 H
atom 0.4480852151714596 1.9042150400000002 12.6997372618300801 H
atom 2.5173721514151488 4.6797150400000005 0.8192506685830347 H
atom 6.3796221514151474 3.6467849600000002 0.8192506685830347 H
atom 4.3103352151714596 0.8712849600000000 12.6997372618300801 H
atom 0.0339705963276373 1.8859522500000001 3.3259414106402345 H
atom 2.9314867702589709 4.6614522500000000 10.1930465197728797 H
atom 6.7937367702589704 3.6650477500000003 10.1930465197728797 H
atom 3.8962205963276371 0.8895477500000001 3.3259414106402345 H
atom 7.0366618750858700 1.8457630100000000 5.6506665751540739 H
atom 3.6532954915007378 4.6212630099999998 7.8683213552590408 H
atom -0.2089545084992624 3.7052369900000004 7.8683213552590408 H
atom 3.1744118750858705 0.9297369900000000 5.6506665751540739 H
atom 5.6568139837776901 5.5034279300000000 6.5254802841311061 H
atom 5.0331433828089187 2.7279279299999999 6.9935076462820094 H
atom 1.1708933828089181 0.0475720700000000 6.9935076462820094 H
atom 1.7945639837776897 2.8230720699999998 6.5254802841311061 H
atom 4.9875393720842682 3.6644371400000000 4.9643075579269995 H
atom 5.7024179945023397 0.8889371400000000 8.5546803724861142 H
atom 1.8401679945023401 1.8865628600000000 8.5546803724861142 H
atom 1.1252893720842685 4.6620628600000007 4.9643075579269995 H
atom 5.7249900944513241 3.6796468800000004 2.6471530266541921 H
atom 4.9649672721352847 0.9041468800000000 10.8718349037589217 H
atom 1.1027172721352843 1.8713531200000000 10.8718349037589217 H
atom 1.8627400944513237 4.6468531200000003 2.6471530266541921 H
