#=======================================================
# FHI-aims file: relax_geometryin/PHNAPH_geometry.in
# Created using the Atomic Simulation Environment (ASE)
# Fri Oct 18 14:36:26 2024
#=======================================================
lattice_vector 10.8353000000000002 0.0000000000000000 0.0000000000000000 
lattice_vector 0.0000000000000000 5.0787000000000004 0.0000000000000000 
lattice_vector -11.5922201100483964 0.0000000000000000 15.6115559749881925 
atom -6.7658946768716737 0.8342272620000000 13.5720623024157359 C
atom 0.2128645117990792 3.3735772620000000 9.8452716600665529 C
atom 6.0089745668232775 4.2444727380000007 2.0394936725724575 C
atom -0.9697846218474758 1.7051227380000000 5.7662843149216387 C
atom -7.4257988907979184 1.8689616000000002 12.9090395201579859 C
atom 0.8727687257253230 4.4083116000000002 10.5082944423243028 C
atom 6.6688787807495213 3.2097384000000004 2.7025164548302061 C
atom -1.6296888357737207 0.6703884000000001 5.1032615326638906 C
atom -8.8128869611520368 2.0298548160000003 13.0443917104611344 C
atom 2.2598567960794429 4.5692048160000009 10.3729422520211543 C
atom 8.0559668511036406 3.0488451840000002 2.5671642645270585 C
atom -3.0167769061278400 0.5094951840000000 5.2386137229670382 C
atom -9.5291491545879037 1.1688120180000001 13.8722725238147575 C
atom 2.9761189895153102 3.7081620180000003 9.5450614386675312 C
atom 8.7722290445395092 3.9098879820000003 1.7392834511734345 C
atom -3.7330390995637064 1.3705379820000001 6.0664945363206613 C
atom -8.8405669731819003 0.1123916310000000 14.5807249339597220 C
atom 2.2875368081093064 2.6517416310000002 8.8366090285225667 C
atom 8.0836468631335041 4.9663083690000009 1.0308310410284705 C
atom -3.0444569181577026 2.4269583690000003 6.7749469464656267 C
atom -7.4695879223075403 5.0253736500000006 14.3999431157693589 C
atom 0.9165577572349463 2.4860236500000004 9.0173908467129298 C
atom 6.7126678122591441 0.0533263500000000 1.2116128592188335 C
atom -1.6734778672833419 2.5926763500000001 6.5941651282752627 C
atom -9.8115282050689654 4.5273055410000005 15.4726131268107974 C
atom 3.2584980399963710 1.9879555410000003 7.9447208356714913 C
atom 9.0546080950205692 0.5513944590000001 0.1389428481773949 C
atom -4.0154181500447672 3.0907444590000006 7.6668351393167011 C
atom -11.0129106453987191 0.1418988780000000 15.2640427389849567 C
atom 4.4598804803261256 2.6812488779999999 8.1532912234973320 C
atom 10.2559905353503229 4.9368011220000003 0.3475132360032371 C
atom -5.2168005903745209 2.3974511220000001 7.4582647514908587 C
atom -0.1060328998153353 1.1596195710000001 14.3017464286866840 C
atom -6.4469972652572585 3.6989695710000006 9.1155875337956047 C
atom -0.6508872102330604 3.9190804290000001 1.3098095463015094 C
atom 5.6900771552088631 1.3797304290000003 6.4959684411925869 C
atom -1.2916498050960912 1.8839437650000002 14.0294808924828889 C
atom -5.2613803599765028 4.4232937650000004 9.3878530699993998 C
atom 0.5347296950476954 3.1947562350000003 1.5820750825053034 C
atom 4.5044602499281075 0.6554062350000001 6.2237029049887926 C
atom -1.3371856808158662 2.9196938430000001 13.0534464129266272 C
atom -5.2158444842567286 0.3803438430000000 10.3638875495556615 C
atom 0.5802655707674700 2.1590061570000003 2.5581095620615653 C
atom 4.4589243742083324 4.6983561570000001 5.2476684254325310 C
atom -2.4838847856198751 3.6304579080000003 12.7986658194148202 C
atom -4.0691453794527179 1.0911079080000001 10.6186681430674685 C
atom 1.7269646755714800 1.4482420920000003 2.8128901555733727 C
atom 3.3122252694043230 3.9875920920000003 4.9928878319207239 C
atom -3.6674700191778449 3.3565128300000007 13.5303794479625168 C
atom -2.8855601458947504 0.8171628300000000 9.8869545145197719 C
atom 2.9105499091294482 1.7221871700000002 2.0811765270256761 C
atom 2.1286400358463529 4.2615371700000004 5.7246014604684206 C
atom -3.6839136103480215 2.3735812320000003 14.4908023715437899 C
atom -2.8691165547245725 4.9129312320000000 8.9265315909384988 C
atom 2.9269935002996261 2.7051187680000002 1.1207536034444023 C
atom 2.1121964446761767 0.1657687680000000 6.6850243840496937 C
atom 1.7763025561344206 3.4943487480000002 0.8320959334668706 C
atom 3.2628873888413814 0.9549987480000002 6.9736820540272255 C
atom -2.5332226661828168 1.5843512520000003 14.7794600415213218 C
atom -4.0198074988897776 4.1237012520000000 8.6378739209609670 C
atom -5.6891483710463104 0.7203120210000001 13.4549756326033236 H
atom -0.8638817940262840 3.2596620210000005 9.9623583298789651 H
atom 4.9322282609979142 4.3583879790000006 2.1565803423848693 H
atom 0.1069616839778871 1.8190379790000002 5.6491976451092274 H
atom -6.8684727709772746 2.5660639620000003 12.2819233166427111 H
atom 0.3154426059046808 0.0267139620000000 11.1354106458395776 H
atom 6.1115526609288793 2.5126360380000001 3.3296326583454818 H
atom -1.0723627159530762 5.0519860379999999 4.4761453291486140 H
atom 1.5397608149587945 2.8487951910000002 12.5179700429845315 H
atom -8.0927909800313884 0.3094451910000000 10.8993639194977572 H
atom -2.2966809250071902 2.2299048090000002 3.0935859320036601 H
atom 7.3358708699829931 4.7692548090000004 4.7121920554904362 H
atom -6.9257150034764097 4.2308618220000005 14.9062258760382260 H
atom 0.3726848384038152 1.6915118220000003 8.5111080864440627 H
atom 6.1687948934280135 0.8478381780000001 0.7053300989499665 H
atom -1.1296049484522113 3.3871881780000002 7.1004478885441298 H
atom -0.4303831047410616 3.1532124690000005 12.5037635270472940 H
atom -6.1226470603315324 0.6138624690000001 10.9135704354349947 H
atom -0.3265370053073341 1.9254875310000004 3.1077924479408994 H
atom 5.3657269502831371 4.4648375310000006 4.6979855395531960 H
atom -2.4864310239188443 4.4178087690000005 12.0466571680996370 H
atom -4.0665991411537501 1.8784587690000001 11.3706767943826517 H
atom 1.7295109138704485 0.6608912310000000 3.5648988068885537 H
atom 3.3096790311053534 3.2002412310000001 4.2408791806055426 H
atom -4.5660317495901337 3.9399538860000005 13.3335177271179148 H
atom -1.9869984154824607 1.4006038860000003 10.0838162353643739 H
atom 3.8091116395417379 1.1387461140000001 2.2780382478702768 H
atom 1.2300783054340638 3.6780961140000001 5.5277397396238195 H
atom -4.5909421282132090 2.2099963050000002 15.0674932492598526 H
atom -1.9620880368593854 4.7493463050000004 8.3498407132224362 H
atom 3.8340220181648133 2.8687036950000002 0.5440627257283385 H
atom 1.2051679268109885 0.3293536950000001 7.2617152617657581 H
