#=======================================================
# FHI-aims file: relax_geometryin/HBZCOR_geometry.in
# Created using the Atomic Simulation Environment (ASE)
# Fri Oct 18 14:36:23 2024
#=======================================================
lattice_vector 18.3533000000000008 0.0000000000000000 0.0000000000000000 
lattice_vector 0.0000000000000000 5.0265000000000004 0.0000000000000000 
lattice_vector -5.0562564590064998 0.0000000000000000 11.8680002806182578 
atom -1.3571872726903729 4.1445000450000000 4.8622010349664944 C
atom 5.4775808136838737 1.6312500450000000 7.0057992456517635 C
atom 14.6542308136838759 0.8819999550000001 7.0057992456517635 C
atom 7.8194627273096273 3.3952499550000002 4.8622010349664944 C
atom -0.6383216763533296 0.0149789700000000 5.6415726133946951 C
atom 4.7587152173468308 2.5282289700000002 6.2264276672235628 C
atom 13.9353652173468312 5.0115210300000008 6.2264276672235628 C
atom 8.5383283236466720 2.4982710300000002 5.6415726133946951 C
atom 0.2123458650081320 0.9291987900000001 5.0354738390635205 C
atom 3.9080476759853680 3.4424487900000003 6.8325264415547382 C
atom 13.0846976759853675 4.0973012100000004 6.8325264415547382 C
atom 9.3889958650081340 1.5840512099999999 5.0354738390635205 C
atom 14.7214015361482762 1.4101343100000001 2.4545398180374680 C
atom 7.7522920048452244 3.9233843100000003 9.4134604625807903 C
atom -1.4243579951547751 3.6163656900000003 9.4134604625807903 C
atom 5.5447515361482766 1.1031156900000001 2.4545398180374680 C
atom 15.4216140966813846 2.3234493600000001 3.2298762763702591 C
atom 7.0520794443121186 4.8366993599999999 8.6381240042479988 C
atom -2.1245705556878804 2.7030506400000003 8.6381240042479988 C
atom 6.2449640966813815 0.1898006400000000 3.2298762763702591 C
atom 16.3313498877038512 3.2218357050000006 2.6501244626620570 C
atom 6.1423436532896520 0.7085857050000001 9.2178758179561999 C
atom -3.0343063467103479 1.8046642950000003 9.2178758179561999 C
atom 7.1546998877038481 4.3179142950000005 2.6501244626620570 C
atom -1.2483590576423573 4.1453545500000004 3.4647440019236941 C
atom 5.3687525986358589 1.6321045500000000 8.4032562786945633 C
atom 14.5454025986358602 0.8811454500000001 8.4032562786945633 C
atom 7.9282909423576440 3.3943954500000002 3.4647440019236941 C
atom -0.3533762251235349 0.0333256950000000 2.8390630271294994 C
atom 4.4737697661170346 2.5465756950000005 9.0289372534887580 C
atom 13.6504197661170359 4.9931743050000001 9.0289372534887580 C
atom 8.8232737748764638 2.4799243049999999 2.8390630271294994 C
atom 0.3815846427787747 0.9497069100000001 3.6431200461413868 C
atom 3.7388088982147254 3.4629569100000004 8.2248802344768723 C
atom 12.9154588982147249 4.0767930900000007 8.2248802344768723 C
atom 9.5582346427787748 1.5635430900000002 3.6431200461413868 C
atom 1.3023238362831691 1.8827258400000002 3.0147094312826503 C
atom 2.8180697047103318 4.3959758400000002 8.8532908493356075 C
atom 11.9947197047103344 3.1437741600000004 8.8532908493356075 C
atom 10.4789738362831670 0.6305241600000000 3.0147094312826503 C
atom 2.0081413026483923 2.8268030700000000 3.7747361692534431 C
atom 2.1122522383451083 0.3135530700000000 8.0932641113648138 C
atom 11.2889022383451092 2.1996969300000004 8.0932641113648138 C
atom 11.1847913026483923 4.7129469300000002 3.7747361692534431 C
atom 2.8805126609908425 3.7221735150000002 3.1732659150317097 C
atom 1.2398808800026588 1.2089235150000002 8.6947343655865481 C
atom 10.4165308800026590 1.3043264850000000 8.6947343655865481 C
atom 12.0571626609908424 3.8175764850000005 3.1732659150317097 C
atom 14.9026171415700794 1.3858060500000000 1.0784451854997812 C
atom 7.5710763994234211 3.8990560500000000 10.7895550951184767 C
atom -1.6055736005765788 3.6406939500000006 10.7895550951184767 C
atom 5.7259671415700790 1.1274439500000002 1.0784451854997812 C
atom 15.7780030171892243 2.2830865650000001 0.4470675705708898 C
atom 6.6956905238042772 4.7963365650000007 11.4209327100473690 C
atom -2.4809594761957250 2.7434134350000003 11.4209327100473690 C
atom 6.6013530171892256 0.2301634350000000 0.4470675705708898 C
atom 16.5084876039715240 3.2164573500000002 1.2366456292404224 C
atom 5.9652059370219792 0.7032073500000000 10.6313546513778352 C
atom -3.2114440629780225 1.8100426500000000 10.6313546513778352 C
atom 7.3318376039715236 4.3232926500000000 1.2366456292404224 C
atom 17.4343564926818217 4.1294205450000003 0.6142876945248010 C
atom 5.0393370483116771 1.6161705450000001 11.2537125860934566 C
atom -4.1373129516883234 0.8970794550000000 11.2537125860934566 C
atom 8.2577064926818231 3.4103294550000003 0.6142876945248010 C
atom -0.1804619771529225 0.0212620950000000 1.4105118333514799 C
atom 4.3008555181464230 2.5345120950000002 10.4574884472667780 C
atom 13.4775055181464243 5.0052379050000004 10.4574884472667780 C
atom 8.9961880228470772 2.4919879050000002 1.4105118333514799 C
atom 0.7388804414714838 0.9170849250000001 0.7965801788350975 C
atom 3.3815130995220164 3.4303349250000004 11.0714201017831613 C
atom 12.5581630995220177 4.1094150750000003 11.0714201017831613 C
atom 9.9155304414714820 1.5961650750000000 0.7965801788350975 C
atom 1.4826584322111724 1.8499027950000002 1.6027734378974958 C
atom 2.6377351087823291 4.3631527950000004 10.2652268427207627 C
atom 11.8143851087823286 3.1765972050000002 10.2652268427207627 C
atom 10.6593084322111729 0.6633472050000001 1.6027734378974958 C
atom 2.3895563513955849 2.7645750000000007 0.9960812635522904 C
atom 1.7308371895979153 0.2513250000000000 10.8719190170659683 C
atom 10.9074871895979157 2.2619250000000002 10.8719190170659683 C
atom 11.5662063513955857 4.7751749999999999 0.9960812635522904 C
atom 3.0759820994270748 3.6863345700000005 1.7999009225585649 C
atom 1.0444114415664261 1.1730845700000001 10.0680993580596922 C
atom 10.2210614415664267 1.3401654300000003 10.0680993580596922 C
atom 12.2526320994270748 3.8534154300000001 1.7999009225585649 C
atom -2.0188276495476645 3.4401366000000002 5.3580460866907247 H
atom 6.1392211905411642 0.9268866000000001 6.5099541939275323 H
atom 15.3158711905411682 1.5863634000000000 6.5099541939275323 H
atom 7.1578223504523351 4.0996134000000000 5.3580460866907247 H
atom -0.7476756561898030 0.0069868350000000 6.7253583990207542 H
atom 4.8680691971833037 2.5202368350000004 5.1426418815975037 H
atom 14.0447191971833032 5.0195131650000002 5.1426418815975037 H
atom 8.4289743438101983 2.5062631650000000 6.7253583990207542 H
atom 0.7529131851352104 1.6356231000000003 5.6599680138296531 H
atom 3.3674803558582895 4.1488731000000003 6.2080322667886048 H
atom 12.5441303558582913 3.3908769000000003 6.2080322667886048 H
atom 9.9295631851352102 0.8776269000000001 5.6599680138296531 H
atom 14.0289455535388221 0.7072285500000001 2.9150182289254567 H
atom 8.4447479874546794 3.2204785500000006 8.9529820516928016 H
atom -0.7319020125453236 4.3192714500000005 8.9529820516928016 H
atom 4.8522955535388244 1.8060214500000003 2.9150182289254567 H
atom 15.2655114543662105 2.3202826650000001 4.3053544617998849 H
atom 7.2081820866272883 4.8335326649999999 7.5626458188183721 H
atom -1.9684679133727117 2.7062173350000003 7.5626458188183721 H
atom 6.0888614543662118 0.1929673350000000 4.3053544617998849 H
atom 1.8542335174958455 2.8906396200000004 4.8480781146325578 H
atom 2.2661600234976556 0.3773896200000000 7.0199221659857001 H
atom 11.4428100234976551 2.1358603800000004 7.0199221659857001 H
atom 11.0308835174958464 4.6491103799999998 4.8480781146325578 H
atom 3.4005910959736347 4.4702675100000002 3.7704636891524204 H
atom 0.7198024450198657 1.9570175100000002 8.0975365914658379 H
atom 9.8964524450198645 0.5562324900000000 8.0975365914658379 H
atom 12.5772410959736369 3.0694824900000000 3.7704636891524204 H
atom 14.3559736042384465 0.6488708850000001 0.4975065717635174 H
atom 8.1177199367550550 3.1621208850000007 11.3704937088547418 H
atom -1.0589300632449479 4.3776291150000004 11.3704937088547418 H
atom 5.1793236042384478 1.8643791150000002 0.4975065717635174 H
atom 3.7635955139270352 4.4019071099999998 1.3598354721532400 H
atom 0.3567980270664655 1.8886571100000002 10.5081648084650183 H
atom 9.5334480270664645 0.6245928900000001 10.5081648084650183 H
atom 12.9402455139270369 3.1378428900000004 1.3598354721532400 H
