xc                                 pbe
relativistic                       atomic_zora scalar
occupation_type                    gaussian 0.01
load_balancing                     .true.
KS_method                          scalapack_fast
mixer                              pulay
n_max_pulay                        5
charge_mix_param                   0.4
sc_accuracy_etot                   1e-6
sc_accuracy_eev                    1e-3
sc_accuracy_rho                    1e-5
sc_iter_limit                      500
prodbas_threshold                  1e-4
basis_threshold                    1e-5
override_illconditioning           .true.
use_logsbt                         .true.
spin                               collinear
charge                             0
fixed_spin_moment                  2.0
default_initial_moment             1.0
k_grid                             2 4 2 # This should be modified according to cell length
