#=======================================================
# FHI-aims file: relax_geometryin/NAPANT01_geometry.in
# Created using the Atomic Simulation Environment (ASE)
# Fri Oct 18 14:36:26 2024
#=======================================================
lattice_vector 11.9158000000000008 0.0000000000000000 0.0000000000000000 
lattice_vector 0.0000000000000000 7.5731000000000002 0.0000000000000000 
lattice_vector -0.3348290027691716 0.0000000000000000 10.7821023380834493 
atom 8.7882595287869716 2.9976601730000003 3.1656252464613011 C
atom 2.7927114684438572 6.7842101730000000 7.6164770916221487 C
atom 9.5367967486333320 3.0986095960000002 4.3478827678321510 C
atom 2.0441742485974967 6.8851595960000003 6.4342195702512983 C
atom 10.7680899922250308 2.4871575020000001 4.4580758537273635 C
atom 0.8128810050057979 6.2737075020000006 6.3240264843560858 C
atom 0.7118899196501479 1.2651620859999999 3.3868739864387734 C
atom 10.8690810775806810 5.0517120860000002 7.3952283516446764 C
atom 1.2661620374184741 0.6847597020000000 2.2642414909975241 C
atom 10.3148089598123534 4.4713097020000001 8.5178608470859256 C
atom 0.5556023548887320 0.6543158400000001 1.0562147450386548 C
atom 11.0253686423420980 4.4408658400000007 9.7258875930447939 C
atom 10.7036274750082647 0.8125178990000000 9.2735783999621937 C
atom 0.8773435222225653 4.5990678990000005 1.5085239381212554 C
atom 9.9930945787987433 0.8342526960000000 8.0646890858162781 C
atom 1.5878764184320857 4.6208026960000002 2.7174132522671717 C
atom 8.6954074491181306 1.2918951290000000 8.0281377588901748 C
atom 2.8855635481126982 5.0784451290000003 2.7539645791932745 C
atom 6.6608810551144293 3.1017902980000001 6.8355294192747644 C
atom 4.9200899421163999 6.8883402980000001 3.9465729188086853 C
atom 5.9818389425553260 3.4666622560000002 5.6639461792186170 C
atom 5.5991320546755023 7.2532122559999994 5.1181561588648323 C
atom 4.6137995728071202 3.3159575660000002 5.5790910338179005 C
atom 6.9671714244237091 7.1025075660000008 5.2030113042655488 C
atom 2.4526847915457166 2.8443048980000003 6.6747682734139406 C
atom 9.1282862056851108 6.6308548979999999 4.1073340646695096 C
atom 1.7442937106840399 2.5098768020000000 7.8104471126842698 C
atom 9.8366772865467880 6.2964268020000009 2.9716552253991795 C
atom 2.4115039066520096 2.2931346800000001 9.0253744041395123 C
atom 9.1694670905788183 6.0796846799999997 1.7567279339439363 C
atom 4.1716652746596257 2.2738990060000002 0.8191163146241996 C
atom 7.4093057225712027 6.0604490059999998 9.9629860234592496 C
atom 4.8551747107483720 2.1170601050000002 2.0310246174247792 C
atom 6.7257962864824581 5.9036101050000003 8.7510777206586692 C
atom 6.2296846801206724 2.0308782270000001 2.0609988619246513 C
atom 5.3512863171101568 5.8174282270000006 8.7211034761587971 C
atom 11.3288033385734135 1.8264045270000000 3.3352277162393533 C
atom 0.2521676586574163 5.6129545270000003 7.4468746218440964 C
atom 11.1815442319255673 1.1817822549999999 0.9517361733826261 C
atom 0.3994267653052632 4.9683322550000000 9.8303661647008234 C
atom 10.1136098956222149 1.2191933690000001 10.4652163503671769 C
atom 1.4673611016086141 5.0057433690000002 0.3168859877162726 C
atom 8.0314431817074272 1.7381779120000000 9.1989662517826556 C
atom 3.5495278155234025 5.5247279119999995 1.5831360863007928 C
atom 6.6732651423232134 2.1869598180000001 9.1764316578960621 C
atom 4.9077058549076149 5.9735098180000001 1.6056706801873872 C
atom 5.9876236679865453 2.6006782710000000 7.9564367783419199 C
atom 5.5933473292442839 6.3872282709999997 2.8256655597415299 C
atom 3.8672237718969664 2.9032993469999999 6.7088397168022835 C
atom 7.7137472253338641 6.6898493470000000 4.0732626212811658 C
atom 3.8045670438082508 2.3626557379999999 9.1178848422002687 C
atom 7.7764039534225793 6.1492057380000000 1.6642174958831804 C
atom 4.5188038534211001 2.2848042700000004 10.3916824124214475 C
atom 7.0621671438097291 6.0713542699999996 0.3904199256620017 C
atom 6.9983990800263891 2.1097141979999998 0.8706547638002385 C
atom 4.5825719172044392 5.8962641980000008 9.9114475742832102 C
atom 8.4298293604252823 2.0337560050000003 0.8749676047354719 C
atom 3.1511416368055465 5.8203060049999999 9.9071347333479771 C
atom 9.2400073044289837 2.2588285369999999 2.0675759443508825 C
atom 2.3409636928018451 6.0453785370000004 8.7145263937325659 C
atom 10.5792476806173550 1.7494618310000001 2.1128607741708327 C
atom 1.0017233166134756 5.5360118310000006 8.6692415639126157 C
atom 8.7451279347155655 1.6710802460000000 10.4521700065380969 C
atom 2.8358430625152637 5.4576302459999999 0.3299323315453535 C
atom 4.5557016002034416 2.5972703760000000 7.9295893435200915 C
atom 7.0252693970273885 6.3838203760000001 2.8525129945633574 C
atom 5.9557053569499097 2.1989253160000000 10.3963187164268227 C
atom 5.6252656402809196 5.9854753159999996 0.3857836216566258 C
atom 7.8471979307551099 3.5340628460000003 3.0950024761468544 H
atom 3.7337730664757198 7.3206128459999995 7.6870998619365949 H
atom 9.1372296625802161 3.6784818630000000 5.1776733637710537 H
atom 2.4437413346506123 7.4650318630000001 5.6044289743123956 H
atom 11.3352192169960233 2.5413808979999999 5.3886791065273467 H
atom 0.2457517802348051 6.3279308980000000 5.3934232315561026 H
atom 1.2670283015995347 1.3156746630000000 4.3237308585948435 H
atom 10.3139426956312938 5.1022246630000003 6.4583714794886058 H
atom 2.2650745654796958 0.2539260430000000 2.2984207554092491 H
atom 9.3158964317511330 4.0404760430000000 8.4836815826742011 H
atom 1.0358384377507086 0.2028833490000000 0.1919214216178854 H
atom 10.5451325594801197 3.9894333490000000 10.5901809164655631 H
atom -0.1866979839587738 0.4515082220000000 9.2620415504604452 H
atom 11.7676689811896029 4.2380582220000003 1.5200607876230046 H
atom 10.4738372521127943 0.4810433119999999 7.1533857962014640 H
atom 1.1071337451180354 4.2675933120000007 3.6287165418819849 H
atom 8.1568468027698522 1.2842462980000000 7.0869680457988711 H
atom 3.4241241944609770 5.0707962979999994 3.6951342922845791 H
atom 7.7358677863421335 3.2542368009999998 6.8834019536558548 H
atom 3.8451032108886953 7.0407868010000003 3.8987003844275945 H
atom 6.5342999288015156 3.8795476679999998 4.8221874496844421 H
atom 5.0466710684293137 0.0929976680000000 5.9599148883990081 H
atom 4.0870186213837734 3.5526169410000001 4.6576525680052878 H
atom 7.4939523758470568 7.3391669410000002 6.1244497700781606 H
atom 1.9378612000436994 3.1005028710000002 5.7481543984790493 H
atom 9.6431097971871296 6.8870528710000007 5.0339479396044009 H
atom 0.6566579039402705 2.4586826460000002 7.7861873824235825 H
atom 10.9243130932905590 6.2452326459999998 2.9959149556598672 H
atom 1.8138755179839408 2.0989603960000003 9.9133883527040663 H
atom 9.7670954792468887 5.8855103959999999 0.8687139853793835 H
atom 3.0884619281042265 2.3642460890000003 0.8401414141834624 H
atom 8.4925090691266032 6.1507960890000000 9.9419609238999875 H
atom 4.2907909928304440 2.0254255950000002 2.9574228503129092 H
atom 7.2901800044003853 5.8119755949999998 7.8246794877705392 H
atom 6.7234104034177067 1.8307969250000000 3.0070205210680934 H
atom 4.8575605938131226 5.6173469250000005 7.7750818170153568 H
