#=======================================================
# FHI-aims file: relax_geometryin/CORONE01_geometry.in
# Created using the Atomic Simulation Environment (ASE)
# Fri Oct 18 14:36:25 2024
#=======================================================
lattice_vector 15.9060000000000006 0.0000000000000000 0.0000000000000000 
lattice_vector 0.0000000000000000 4.5702999999999996 0.0000000000000000 
lattice_vector -3.5247810820326451 0.0000000000000000 9.3565977028909799 
atom 13.8337025114230716 2.6558470329999997 0.3577962961585511 C
atom 6.5005164065442838 0.3706970330000000 8.9988014067324276 C
atom -1.4524835934557165 1.9144529669999997 8.9988014067324276 C
atom 5.8807025114230722 4.1996029669999997 0.3577962961585511 C
atom 13.4438108548292430 2.3011460499999994 1.6790414577837864 C
atom 6.8904080631381142 0.0159960500000000 7.6775562451071933 C
atom -1.0625919368618870 2.2691539499999998 7.6775562451071933 C
atom 5.4908108548292418 4.5543039499999995 1.6790414577837864 C
atom 14.0493584410153680 2.8717023019999997 2.7721727674125396 C
atom 6.2848604769519865 0.5865523020000000 6.5844249354784408 C
atom -1.6681395230480129 1.6985976979999997 6.5844249354784408 C
atom 6.0963584410153686 3.9837476979999997 2.7721727674125396 C
atom -0.8028106009698447 3.8157891729999998 2.6267712391096136 C
atom 5.2310295189372003 1.5306391729999997 6.7298264637813663 C
atom 13.1840295189372014 0.7545108269999998 6.7298264637813663 C
atom 7.1501893990301557 3.0396608269999996 2.6267712391096136 C
atom -0.1301698790832140 4.3904129919999999 3.7415162894320453 C
atom 4.5583887970505694 2.1052629919999997 5.6150814134589346 C
atom 12.5113887970505697 0.1798870080000000 5.6150814134589346 C
atom 7.8228301209167865 2.4650370079999995 3.7415162894320453 C
atom 0.8796941315291555 0.7376464199999999 3.5667350443420416 C
atom 3.5485247864381990 3.0227964199999997 5.7898626585489383 C
atom 11.5015247864381998 3.8326535799999997 5.7898626585489383 C
atom 8.8326941315291574 1.5475035799999999 3.5667350443420416 C
atom 1.2918592516343104 1.1417980489999999 2.2670100574334557 C
atom 3.1363596663330453 3.4269480489999995 7.0895876454575246 C
atom 11.0893596663330438 3.4285019509999999 7.0895876454575246 C
atom 9.2448592516343098 1.1433519509999999 2.2670100574334557 C
atom 2.3171861000610217 2.1033434660000001 2.0575158348657268 C
atom 2.1110328179063336 4.3884934659999990 7.2990818680252536 C
atom 10.0640328179063339 2.4669565339999999 7.2990818680252536 C
atom 10.2701861000610215 0.1818065340000000 2.0575158348657268 C
atom 2.6868455132439841 2.4830439899999996 0.7899775440550855 C
atom 1.7413734047233713 0.1978939900000000 8.5666201588358941 C
atom 9.6943734047233718 2.0872560099999999 8.5666201588358941 C
atom 10.6398455132439835 4.3724060099999997 0.7899775440550855 C
atom 14.8652303710357945 3.6180779949999997 0.1795531099184779 C
atom 5.4689885469315627 1.3329279949999999 9.1770445929725017 C
atom -2.4840114530684385 0.9522220050000000 9.1770445929725017 C
atom 6.9122303710357933 3.2373720049999997 0.1795531099184779 C
atom -0.4000957932688679 4.1924275959999999 1.3149762411642982 C
atom 4.8283147112362235 1.9072775959999999 8.0416214617266810 C
atom 12.7813147112362220 0.3778724040000000 8.0416214617266810 C
atom 7.5529042067311334 2.6630224039999995 1.3149762411642982 C
atom 0.6440665225602605 0.5728414020000000 1.1348617353836470 C
atom 3.7841523954070952 2.8579914019999997 8.2217359675073336 C
atom 11.7371523954070938 3.9974585979999997 8.2217359675073336 C
atom 8.5970665225602616 1.7123085979999999 1.1348617353836470 C
atom 12.6518299587348864 1.5629054909999998 1.8095659957391155 H
atom 7.6823889592324699 3.8480554909999998 7.5470317071518647 H
atom -0.2706110407675310 3.0073945089999996 7.5470317071518647 H
atom 4.6988299587348870 0.7222445089999999 1.8095659957391155 H
atom 13.7280034568322904 2.5940565769999999 3.7751064751854235 H
atom 6.6062154611350667 0.3089065770000000 5.5814912277055564 H
atom -1.3467845388649338 1.9762434229999999 5.5814912277055564 H
atom 5.7750034568322883 4.2613934229999995 3.7751064751854235 H
atom -0.4347495088341844 4.0978680889999994 4.7476312404239120 H
atom 4.8629684268015394 1.8127180889999999 4.6089664624670679 H
atom 12.8159684268015397 0.4724319110000000 4.6089664624670679 H
atom 7.5182504911658166 2.7575819109999995 4.7476312404239120 H
atom 1.3759532748198475 1.1875010490000000 4.4289455226634455 H
atom 3.0522656431475079 3.4726510489999995 4.9276521802275344 H
atom 11.0052656431475082 3.3827989509999998 4.9276521802275344 H
atom 9.3289532748198489 1.0976489509999998 4.4289455226634455 H
atom 2.7996621193244868 2.5599164359999995 2.9216911987047371 H
atom 1.6285567986428695 0.2747664359999999 6.4349065041862428 H
atom 9.5815567986428682 2.0103835639999996 6.4349065041862428 H
atom 10.7526621193244871 4.2955335639999994 2.9216911987047371 H
atom 3.4639182991770903 3.2314306149999994 0.6504706723049809 H
atom 0.9643006187902649 0.9462806149999999 8.7061270305859981 H
atom 8.9173006187902626 1.3388693849999997 8.7061270305859981 H
atom 11.4169182991770910 3.6240193850000000 0.6504706723049809 H
