#=======================================================
# FHI-aims file: relax_geometryin/FOVVOB_geometry.in
# Created using the Atomic Simulation Environment (ASE)
# Fri Oct 18 14:36:27 2024
#=======================================================
lattice_vector 23.1400000000000006 0.0000000000000000 0.0000000000000000 
lattice_vector 0.0000000000000000 8.9720999999999993 0.0000000000000000 
lattice_vector 0.0000000000000000 0.0000000000000000 9.7028999999999996 
atom 12.2567952000000009 3.9878292869999994 7.1034930899999997 C
atom 22.4532047999999982 0.4982207130000000 2.2520430899999999 C
atom 10.8832048000000015 3.9878292869999994 7.4508569099999997 C
atom 0.6867952000000001 0.4982207130000000 2.5994069100000003 C
atom 10.8832048000000015 4.9842707129999990 2.5994069100000003 C
atom 0.6867952000000001 8.4738792869999990 7.4508569099999997 C
atom 12.2567952000000009 4.9842707129999990 2.2520430899999999 C
atom 22.4532047999999982 8.4738792869999990 7.1034930899999997 C
atom 12.9597884000000008 5.2094704229999991 6.9606664020000002 C
atom 21.7502116000000001 8.2486795769999990 2.1092164019999999 C
atom 10.1802115999999998 5.2094704229999991 7.5936835979999993 C
atom 1.3897884000000000 8.2486795769999990 2.7422335979999999 C
atom 10.1802115999999998 3.7626295769999998 2.7422335979999999 C
atom 1.3897884000000000 0.7234204229999999 7.5936835979999993 C
atom 12.9597884000000008 3.7626295769999998 2.1092164019999999 C
atom 21.7502116000000001 0.7234204229999999 6.9606664020000002 C
atom 12.2480019999999996 6.4059896789999993 7.1331839639999997 C
atom 22.4619980000000012 7.0521603209999997 2.2817339639999998 C
atom 10.8919980000000010 6.4059896789999993 7.4211660359999998 C
atom 0.6780020000000000 7.0521603209999997 2.5697160360000000 C
atom 10.8919980000000010 2.5661103209999996 2.5697160360000000 C
atom 0.6780020000000000 1.9199396790000001 7.4211660359999998 C
atom 12.2480019999999996 2.5661103209999996 2.2817339639999998 C
atom 22.4619980000000012 1.9199396790000001 7.1331839639999997 C
atom 14.3981708000000008 5.3234160929999996 6.5912769989999997 C
atom 20.3118292000000018 8.1347339069999993 1.7398269989999999 C
atom 8.7418291999999997 5.3234160929999996 7.9630730009999997 C
atom 2.8281708000000001 8.1347339069999993 3.1116230009999994 C
atom 8.7418291999999997 3.6486839069999997 3.1116230009999994 C
atom 2.8281708000000001 0.8373660929999999 7.9630730009999997 C
atom 14.3981708000000008 3.6486839069999997 1.7398269989999999 C
atom 20.3118292000000018 0.8373660929999999 6.5912769989999997 C
atom 15.2147814000000015 6.2477218350000001 7.2718384049999996 C
atom 19.4952186000000012 7.2104281649999988 2.4203884049999997 C
atom 7.9252186000000009 6.2477218350000001 7.2825115949999999 C
atom 3.6447814000000003 7.2104281649999988 2.4310615950000001 C
atom 7.9252186000000009 2.7243781649999996 2.4310615950000001 C
atom 3.6447814000000003 1.7616718349999998 7.2825115949999999 C
atom 15.2147814000000015 2.7243781649999996 2.4203884049999997 C
atom 19.4952186000000012 1.7616718349999998 7.2718384049999996 C
atom 16.5247367999999994 6.4957106790000001 6.8568453719999995 C
atom 18.1852632000000014 6.9624393209999988 2.0053953719999997 C
atom 6.6152632000000011 6.4957106790000001 7.6975046279999999 C
atom 4.9547368000000001 6.9624393209999988 2.8460546280000001 C
atom 6.6152632000000011 2.4763893209999996 2.8460546280000001 C
atom 4.9547368000000001 2.0096606790000000 7.6975046279999999 C
atom 16.5247367999999994 2.4763893209999996 2.0053953719999997 C
atom 18.1852632000000014 2.0096606790000000 6.8568453719999995 C
atom 17.0477008000000012 5.8223545739999993 5.7499385399999996 C
atom 17.6622991999999996 7.6357954259999996 0.8984885400000000 C
atom 6.0922992000000002 5.8223545739999993 8.8044114599999990 C
atom 5.4777008000000000 7.6357954259999996 3.9529614599999996 C
atom 6.0922992000000002 3.1497454259999995 3.9529614599999996 C
atom 5.4777008000000000 1.3363045739999997 8.8044114599999990 C
atom 17.0477008000000012 3.1497454259999995 0.8984885400000000 C
atom 17.6622991999999996 1.3363045739999997 5.7499385399999996 C
atom 16.2646431999999983 4.8729269520000003 5.0900443109999998 C
atom 18.4453568000000026 8.5852230479999996 0.2385943110000000 C
atom 6.8753568000000005 4.8729269520000003 9.4643056889999997 C
atom 4.6946431999999998 8.5852230479999996 4.6128556889999999 C
atom 6.8753568000000005 4.0991730479999999 4.6128556889999999 C
atom 4.6946431999999998 0.3868769519999999 9.4643056889999997 C
atom 16.2646431999999983 4.0991730479999999 0.2385943110000000 C
atom 18.4453568000000026 0.3868769519999999 5.0900443109999998 C
atom 14.9556134000000007 4.6239511769999995 5.5058135760000004 C
atom 19.7543866000000001 8.8341988229999995 0.6543635759999999 C
atom 8.1843865999999998 4.6239511769999995 9.0485364239999999 C
atom 3.3856134000000000 8.8341988229999995 4.1970864240000001 C
atom 8.1843865999999998 4.3481488229999998 4.1970864240000001 C
atom 3.3856134000000000 0.1379011770000000 9.0485364239999999 C
atom 14.9556134000000007 4.3481488229999998 0.6543635759999999 C
atom 19.7543866000000001 0.1379011770000000 5.5058135760000004 C
atom 12.9269296000000011 2.6858878559999999 6.8112417420000000 C
atom 21.7830703999999997 1.8001621440000000 1.9597917419999999 C
atom 10.2130703999999994 2.6858878559999999 7.7431082579999995 C
atom 1.3569296000000000 1.8001621440000000 2.8916582580000001 C
atom 10.2130703999999994 6.2862121440000003 2.8916582580000001 C
atom 1.3569296000000000 7.1719378559999987 7.7431082579999995 C
atom 12.9269296000000011 6.2862121440000003 1.9597917419999999 C
atom 21.7830703999999997 7.1719378559999987 6.8112417420000000 C
atom 13.9698493999999993 2.1751062029999999 7.5982439609999997 C
atom 20.7401505999999998 2.3109437970000002 2.7467939609999998 C
atom 9.1701505999999995 2.1751062029999999 6.9561060389999998 C
atom 2.3998493999999999 2.3109437970000002 2.1046560390000000 C
atom 9.1701505999999995 6.7969937969999989 2.1046560390000000 C
atom 2.3998493999999999 6.6611562030000000 6.9561060389999998 C
atom 13.9698493999999993 6.7969937969999989 2.7467939609999998 C
atom 20.7401505999999998 6.6611562030000000 7.5982439609999997 C
atom 14.6133728000000005 0.9916862129999999 7.2320565149999991 C
atom 20.0966272000000004 3.4943637869999997 2.3806065150000002 C
atom 8.5266272000000001 0.9916862129999999 7.3222934850000003 C
atom 3.0433728000000002 3.4943637869999997 2.4708434849999996 C
atom 8.5266272000000001 7.9804137869999989 2.4708434849999996 C
atom 3.0433728000000002 5.4777362130000000 7.3222934850000003 C
atom 14.6133728000000005 7.9804137869999989 2.3806065150000002 C
atom 20.0966272000000004 5.4777362130000000 7.2320565149999991 C
atom 14.2368849999999991 0.3130365689999999 6.0688728629999993 C
atom 20.4731150000000000 4.1730134310000002 1.2174228629999999 C
atom 8.9031149999999997 0.3130365689999999 8.4854771370000002 C
atom 2.6668850000000002 4.1730134310000002 3.6340271369999995 C
atom 8.9031149999999997 8.6590634309999999 3.6340271369999995 C
atom 2.6668850000000002 4.7990865689999991 8.4854771370000002 C
atom 14.2368849999999991 8.6590634309999999 1.2174228629999999 C
atom 20.4731150000000000 4.7990865689999991 6.0688728629999993 C
atom 13.1803126000000006 0.7991449469999999 5.2964249939999997 C
atom 21.5296874000000003 3.6869050529999998 0.4449749940000000 C
atom 9.9596874000000000 0.7991449469999999 9.2579250059999989 C
atom 1.6103126000000001 3.6869050529999998 4.4064750060000000 C
atom 9.9596874000000000 8.1729550529999990 4.4064750060000000 C
atom 1.6103126000000001 5.2851949469999990 9.2579250059999989 C
atom 13.1803126000000006 8.1729550529999990 0.4449749940000000 C
atom 21.5296874000000003 5.2851949469999990 5.2964249939999997 C
atom 12.5249878000000017 1.9707217650000000 5.6733826589999996 C
atom 22.1850121999999992 2.5153282349999997 0.8219326589999999 C
atom 10.6150122000000007 1.9707217650000000 8.8809673409999998 C
atom 0.9549878000000001 2.5153282349999997 4.0295173410000000 C
atom 10.6150122000000007 7.0013782349999998 4.0295173410000000 C
atom 0.9549878000000001 6.4567717649999992 8.8809673409999998 C
atom 12.5249878000000017 7.0013782349999998 0.8219326589999999 C
atom 22.1850121999999992 6.4567717649999992 5.6733826589999996 C
atom 12.7637926000000004 7.3566733949999987 7.0071432929999995 H
atom 21.9462073999999987 6.1014766050000002 2.1556932930000001 H
atom 10.3762074000000002 7.3566733949999987 7.5472067070000000 H
atom 1.1937925999999999 6.1014766050000002 2.6957567070000001 H
atom 10.3762074000000002 1.6154266049999997 2.6957567070000001 H
atom 1.1937925999999999 2.8706233950000000 7.5472067070000000 H
atom 12.7637926000000004 1.6154266049999997 2.1556932930000001 H
atom 21.9462073999999987 2.8706233950000000 7.0071432929999995 H
atom 14.8077488000000006 6.7891880699999998 8.1273430980000008 H
atom 19.9022511999999985 6.6689619299999991 3.2758930979999996 H
atom 8.3322512000000000 6.7891880699999998 6.4270069019999996 H
atom 3.2377487999999999 6.6689619299999991 1.5755569020000000 H
atom 8.3322512000000000 2.1829119299999999 1.5755569020000000 H
atom 3.2377487999999999 2.3031380699999997 6.4270069019999996 H
atom 14.8077488000000006 2.1829119299999999 3.2758930979999996 H
atom 19.9022511999999985 2.3031380699999997 8.1273430980000008 H
atom 17.1388724000000003 7.2251424089999992 7.3867207409999995 H
atom 17.5711276000000005 6.2330075909999998 2.5352707410000002 H
atom 6.0011276000000002 7.2251424089999992 7.1676292589999999 H
atom 5.5688724000000001 6.2330075909999998 2.3161792590000001 H
atom 6.0011276000000002 1.7469575909999999 2.3161792590000001 H
atom 5.5688724000000001 2.7390924090000000 7.1676292589999999 H
atom 17.1388724000000003 1.7469575909999999 2.5352707410000002 H
atom 17.5711276000000005 2.7390924090000000 7.3867207409999995 H
atom 18.0610014000000021 6.0361597169999994 5.4138300839999998 H
atom 16.6489985999999988 7.4219902829999995 0.5623800839999999 H
atom 5.0789986000000003 6.0361597169999994 9.1405199159999988 H
atom 6.4910014000000000 7.4219902829999995 4.2890699159999999 H
atom 5.0789986000000003 2.9359402829999999 4.2890699159999999 H
atom 6.4910014000000000 1.5501097170000000 9.1405199159999988 H
atom 18.0610014000000021 2.9359402829999999 0.5623800839999999 H
atom 16.6489985999999988 1.5501097170000000 5.4138300839999998 H
atom 16.6603372000000007 4.3339729049999995 4.2287178779999994 H
atom 18.0496628000000001 0.1520770950000000 9.0801678779999992 H
atom 6.4796627999999998 4.3339729049999995 0.6227321219999999 H
atom 5.0903372000000005 0.1520770950000000 5.4741821220000002 H
atom 6.4796627999999998 4.6381270949999998 5.4741821220000002 H
atom 5.0903372000000005 8.8200229049999983 0.6227321219999999 H
atom 16.6603372000000007 4.6381270949999998 9.0801678779999992 H
atom 18.0496628000000001 8.8200229049999983 4.2287178779999994 H
atom 14.3461058000000001 3.9086056440000001 4.9571145809999990 H
atom 20.3638942000000007 0.5774443560000000 0.1056645810000000 H
atom 8.7938942000000004 3.9086056440000001 9.5972354190000004 H
atom 2.7761057999999998 0.5774443560000000 4.7457854189999997 H
atom 8.7938942000000004 5.0634943559999996 4.7457854189999997 H
atom 2.7761057999999998 8.3946556440000002 9.5972354190000004 H
atom 14.3461058000000001 5.0634943559999996 0.1056645810000000 H
atom 20.3638942000000007 8.3946556440000002 4.9571145809999990 H
atom 14.2854789999999987 2.7112788989999999 8.4919780799999991 H
atom 20.4245210000000021 1.7747711010000000 3.6405280799999997 H
atom 8.8545210000000001 2.7112788989999999 6.0623719200000004 H
atom 2.7154789999999998 1.7747711010000000 1.2109219199999999 H
atom 8.8545210000000001 6.2608211009999994 1.2109219199999999 H
atom 2.7154789999999998 7.1973288989999995 6.0623719200000004 H
atom 14.2854789999999987 6.2608211009999994 3.6405280799999997 H
atom 20.4245210000000021 7.1973288989999995 8.4919780799999991 H
atom 15.4272065999999999 0.6073214490000000 7.8481906649999997 H
atom 19.2827933999999992 3.8787285510000000 2.9967406649999999 H
atom 7.7127933999999998 0.6073214490000000 6.7061593349999997 H
atom 3.8572066000000000 3.8787285510000000 1.8547093349999999 H
atom 7.7127933999999998 8.3647785509999988 1.8547093349999999 H
atom 3.8572066000000000 5.0933714490000002 6.7061593349999997 H
atom 15.4272065999999999 8.3647785509999988 2.9967406649999999 H
atom 19.2827933999999992 5.0933714490000002 7.8481906649999997 H
atom 14.7644770000000012 8.3808386099999996 5.7683740500000003 H
atom 19.9455230000000014 5.0773113899999993 0.9169240500000000 H
atom 8.3755229999999994 8.3808386099999996 8.7859759499999992 H
atom 3.1944770000000000 5.0773113899999993 3.9345259500000003 H
atom 8.3755229999999994 0.5912613900000000 3.9345259500000003 H
atom 3.1944770000000000 3.8947886099999995 8.7859759499999992 H
atom 14.7644770000000012 0.5912613900000000 0.9169240500000000 H
atom 19.9455230000000014 3.8947886099999995 5.7683740500000003 H
atom 12.8723191999999997 0.2667405330000000 4.3967721059999993 H
atom 21.8376808000000011 4.2193094669999995 9.2482221060000001 H
atom 10.2676808000000008 0.2667405330000000 0.4546778940000000 H
atom 1.3023191999999999 4.2193094669999995 5.3061278940000003 H
atom 10.2676808000000008 8.7053594669999992 5.3061278940000003 H
atom 1.3023191999999999 4.7527905329999998 0.4546778940000000 H
atom 12.8723191999999997 8.7053594669999992 9.2482221060000001 H
atom 21.8376808000000011 4.7527905329999998 4.3967721059999993 H
atom 11.7141621999999987 2.3603800679999996 5.0601593789999999 H
atom 22.9958378000000003 2.1256699319999997 0.2087093790000000 H
atom 11.4258378000000000 2.3603800679999996 9.4941906209999996 H
atom 0.1441622000000000 2.1256699319999997 4.6427406209999997 H
atom 11.4258378000000000 6.6117199319999997 4.6427406209999997 H
atom 0.1441622000000000 6.8464300679999992 9.4941906209999996 H
atom 11.7141621999999987 6.6117199319999997 0.2087093790000000 H
atom 22.9958378000000003 6.8464300679999992 5.0601593789999999 H
