#=======================================================
# FHI-aims file: relax_geometryin/DBPERY_geometry.in
# Created using the Atomic Simulation Environment (ASE)
# Fri Oct 18 14:36:24 2024
#=======================================================
lattice_vector 16.3497400000000006 0.0000000000000000 0.0000000000000000 
lattice_vector 0.0000000000000000 5.0860099999999999 0.0000000000000000 
lattice_vector -6.2746397100226785 0.0000000000000000 19.4021912054877603 
atom 13.7120108683543958 2.2097797968199999 5.1369241435649391 C
atom -3.6369105783770741 2.8762302031799996 14.2652670619228203 C
atom 4.5371110965756847 2.2085032083099998 14.2661207583358625 C
atom 5.5379891934016365 2.8775067916899997 5.1360704471518979 C
atom 10.5836701307222043 4.7523575719799993 14.8406390421215608 C
atom -0.5085698407448819 0.3336524280199999 4.5615521633662004 C
atom 7.6673197610072883 4.7534561501399999 4.5610283042036519 C
atom 2.4077805289700329 0.3325538498600000 14.8411629012841093 C
atom 14.1335366177288257 1.2624138001299998 6.1388532974163272 C
atom -4.0584363277515028 3.8235961998699999 13.2633379080714331 C
atom 4.1157111967629980 1.2608727390999999 13.2643080176317074 C
atom 5.9593890932143259 3.8251372609000001 6.1378831878560538 C
atom 11.0045742332090928 3.8043303939899999 15.8420637390016061 C
atom -0.9294739432317712 1.2816796060099998 3.5601274664861542 C
atom 7.2465918835835890 3.8051085535200002 3.5598170314268667 C
atom 2.8285084063937327 1.2809014464800001 15.8423741740608932 C
atom 14.3247704916448466 2.2144080659199998 3.8516259871574028 C
atom -4.2496865514075264 2.8716019340800001 15.5505652183303571 C
atom 3.9244206727058111 2.2129382090300003 15.5514577191258105 C
atom 6.1506796172715088 2.8730717909699997 3.8507334863619502 C
atom 11.1973481703993265 4.7580030430799996 13.5557871361117499 C
atom -1.1222478804220037 0.3280069569200000 5.8464040693760104 C
atom 7.0537109207507473 4.7589592129599998 5.8459190145958733 C
atom 3.0213893692265748 0.3270507870400000 13.5562721908918888 C
atom 13.8651214833535796 3.1197025878899995 2.8913921422066080 C
atom -3.7900375431162585 1.9663023261000001 16.5107990632811514 C
atom 4.3843464786794000 3.1180089465600003 16.5118467816062484 C
atom 5.6907538112979221 1.9680010534400001 2.8903444238815115 C
atom 10.7394179246245862 0.5792711089500000 12.5966592160596687 C
atom -0.6643176346472648 4.5067388910500004 6.8055319894280917 C
atom 7.5119116895680955 0.5798356560600000 6.8052215543688037 C
atom 2.5631886004092257 4.5061743439399997 12.5969696511189557 C
atom 12.8605019303783177 4.0398787751200000 3.1834339242316099 C
atom -2.7854016404009978 1.0461312248800001 16.2187572812561491 C
atom 5.3887508324717617 4.0383122840399999 16.2196109776691912 C
atom 4.6863494575055595 1.0477028019700001 3.1825802278185686 C
atom 9.7344187055525158 1.4989793832600000 12.8889144221879288 C
atom 0.3406815844248068 3.5870306167399999 6.5132767832998297 C
atom 8.5166278363181398 1.4998694350100001 6.5128305329021039 C
atom 1.5584724536591836 3.5861405649900000 12.8893606725856582 C
atom 12.2817690174042031 4.0645154075600001 4.4390467280947501 C
atom -2.2066687274268801 1.0214945924399998 14.9631444773930102 C
atom 5.9671554243644298 4.0633761413200000 14.9639011628500249 C
atom 4.1079448656128923 1.0226338586799999 4.4382900426377363 C
atom 9.1536892628656386 1.5214493754400000 14.1436735296380292 C
atom 0.9214110271116838 3.5645606245600003 5.2585176758497312 C
atom 9.0966791603600861 1.5229344903599999 5.2577415882015117 C
atom 0.9784211296172375 3.5630755096400000 14.1444496172862486 C
atom 12.6761927693435101 3.1497253049199996 5.4332732120375598 C
atom -2.6010924793661876 1.9362796090700001 13.9689179934502015 C
atom 5.5726611467230924 3.1486674148399998 13.9695388635687774 C
atom 4.5024391432542306 1.9373425851599999 5.4326523419189829 C
atom 9.5470233217133469 0.6053725122700000 15.1371239259326185 C
atom 0.5280769682639749 4.4806374877300001 4.2650672795551410 C
atom 8.7034091741909272 0.6068728852199999 4.2641941809508941 C
atom 1.3716911157863956 4.4791371147799994 15.1379970245368671 C
atom 12.0552559642294455 3.1555640443999997 6.7437554126298194 C
atom -1.9801556742521258 1.9304459556000000 12.6584357928579401 C
atom 6.1932772316768645 3.1548876050700003 12.6590372607853112 C
atom 3.8818230583004589 1.9311223949300000 6.7431539447024500 C
atom 8.9246259062297160 0.6091463316900000 16.4469658542150974 C
atom 1.1504743837476057 4.4768636683100000 2.9552253512726629 C
atom 9.3256052660525270 0.6106924787300000 2.9542164373299777 C
atom 0.7494950239247949 4.4753175212700000 16.4479747681577813 C
atom 11.0730167446171226 4.0907134450699996 7.1336812492865072 C
atom -0.9979164546398005 0.9952965549300000 12.2685099562012550 C
atom 7.1751377547062898 4.0903167362900001 12.2689174022165695 C
atom 2.8999625352710323 0.9956932637100000 7.1332738032711918 C
atom 7.9417619528043506 1.5434768847500000 16.8373573434607167 C
atom 2.1333383371729719 3.5425331152499995 2.5648338620270437 C
atom 10.3077469999712257 1.5456587830399999 2.5633786976866322 C
atom -0.2326467099939024 3.5403512169600000 16.8388125078011299 C
atom 10.5149952213433604 4.0581985831400003 8.4000234648862815 C
atom -0.4398949313660397 1.0278114168599999 11.0021677406014771 C
atom 7.7328070062374410 4.0579391966299996 11.0024005668959433 C
atom 2.3422932837398824 1.0280708033700001 8.3997906385918153 C
atom 7.3829830363647897 1.5090903711399999 18.1033115152363813 C
atom 2.6921172536125320 3.5769196288599998 1.2988796902513782 C
atom 10.8662755435687526 1.5114401077599999 1.2972887105725281 C
atom -0.7911752535914325 3.5745698922400000 18.1049024949152333 C
atom 10.8977901445978809 3.0684610371400001 9.3243438539157193 C
atom -0.8226898546205601 2.0175489628599999 10.0778473515720428 C
atom 7.3500926837852392 3.0680745003800003 10.0782353953961508 C
atom 2.7250076061920820 2.0179354996200001 9.3239558100916096 C
atom 7.7644036895404609 0.5176591838100000 19.0263707618374625 C
atom 2.3106966004368608 4.5683508161899997 0.3758204436502979 C
atom 10.4851531645574330 0.5196325556900000 0.3745204968395303 C
atom -0.4100528745801108 4.5663774443100005 19.0276707086482304 C
atom 11.8459413113732825 2.1335557649500001 8.9627258142278379 C
atom -1.7708410213959620 2.9524542350500003 10.4394653912599225 C
atom 6.4024648870736067 2.1326911432500002 10.4401056635697049 C
atom 3.6726354029037140 2.9533188567500002 8.9620855419180572 C
atom 8.7127330204068745 4.6693386307499996 18.6641512542222117 C
atom 1.3623672695704474 0.4166713692500000 0.7380399512655490 C
atom 9.5377196256979779 4.6706253912799998 0.7372056570437130 C
atom 0.5373806642793429 0.4153846087200000 18.6649855484440472 C
atom 12.4554565891661149 2.1697885001900001 7.6869541337021952 C
atom -2.3803562991887928 2.9162214998100002 11.7152370717855643 C
atom 5.7934062541030960 2.1687509541500001 11.7160325616249903 C
atom 4.2816940358742261 2.9172590458499998 7.6861586438627700 C
atom 9.3236121364107252 4.7079160166000005 17.3891168569623780 C
atom 0.7514881535665970 0.3780990694100000 2.0130743485253824 C
atom 8.9271600819567372 4.7090095087500004 2.0124146740243960 C
atom 1.1479402080205834 0.3770004912500000 17.3897765314633652 C
atom 13.4794490570312409 1.2484832187399999 7.3500738878013125 C
atom -3.4043487670539170 3.8375267812600002 12.0521173176864487 C
atom 4.7700390552023224 1.2468912976099999 12.0532038403939570 C
atom 5.3050612347749997 3.8391187023900000 7.3489873650938051 C
atom 10.3483703894929491 3.7876787972499999 17.0520425891494369 C
atom -0.2732700995156270 1.2983312027499998 2.3501486163383216 C
atom 7.9028510511594448 3.7884518707699999 2.3498187790878280 C
atom 2.1722492388178787 1.2975581292300000 17.0523724263999341 C
atom 14.3000933376015062 3.1280945043899999 1.8949732106575787 H
atom -4.2249930476241833 1.9579154956100000 17.5072179948301816 H
atom 3.9497884946735065 3.1259227781200001 17.5084015284937173 H
atom 6.1253117953038165 1.9600872218800001 1.8937896769940439 H
atom 11.1763045598852724 0.5899975040400000 11.6010939809236806 H
atom -1.1012042699079483 4.4960124959599996 7.8010972245640806 H
atom 7.0754201006303123 0.5902518045400000 7.8009808114168475 H
atom 2.9996801893470098 4.4957581954599997 11.6012103940709146 H
atom 12.5243735204944233 4.7461729838199993 2.4270977066592860 H
atom -2.4492732305171012 0.3398370161800000 16.9750934988284747 H
atom 5.7252491901197171 4.7441538378499999 16.9762188259183908 H
atom 4.3498410247573149 0.3418612481600000 2.4259529773781621 H
atom 9.3997699083410886 2.2068655130899999 12.1334124988374423 H
atom 0.6753303816362340 2.8791444869100000 7.2687787066503180 H
atom 8.8515422082139157 2.2074046301500001 7.2686234891206736 H
atom 1.2235580817634077 2.8786053698499998 12.1335677163670859 H
atom 11.5119454297034967 4.8014528265099994 4.6490948500853602 H
atom -1.4368451397261741 0.2845571734900000 14.7530963554024002 H
atom 6.7367388927071650 4.8006034628399998 14.7539888561978518 H
atom 3.3383613972701567 0.2854065371600000 4.6482023492899085 H
atom 8.3832356362260931 2.2577764731899999 14.3537992603934619 H
atom 1.6918646537512290 2.8282335268100001 5.0483919450942993 H
atom 9.8667303181393393 2.2596633828999999 5.0475964552548733 H
atom 0.2083699718379823 2.8263517031099998 14.3545947502328861 H
atom 10.7444460781580133 4.8662638519400003 6.4472511266275552 H
atom -0.6693457881806923 0.2197461480600000 12.9549400788602043 H
atom 7.5035209731042372 4.8660400675000002 12.9552699161106997 H
atom 2.5715793168730849 0.2199699325000000 6.4469212893770624 H
atom 7.6138849636000323 2.3201665578599999 16.1519167325532429 H
atom 2.4612153263772907 2.7658434421400000 3.2502744729345152 H
atom 10.6355045926372824 2.3223637141800002 3.2489357217413364 H
atom -0.5603980280202510 2.7636462858200002 16.1532360815552174 H
atom 9.7777142075792831 4.8121334475099999 8.6727406644706182 H
atom 0.2973860823980392 0.2738765524900000 10.7294505410171421 H
atom 8.4696237742580394 4.8122046516500001 10.7294505410171421 H
atom 1.6054765157192830 0.2738002623400000 8.6727406644706182 H
atom 6.6456145344123110 2.2626030966799999 18.3768048024689357 H
atom 3.4294857555650116 2.8234069033199996 1.0253864030188227 H
atom 11.6031394993765939 2.2653698861199998 1.0234849882806849 H
atom -1.5280392093992723 2.8206401138799997 18.3787062172070748 H
atom 10.4583037222934294 3.0479695028499996 10.3196568605660364 H
atom -0.3832034323161063 2.0380404971499999 9.0825343449217257 H
atom 7.7892104846070840 3.0477660624500000 9.0827477690249854 H
atom 2.2858898053702381 2.0382439375499999 10.3194434364627750 H
atom 13.5977807734708573 0.4959978672200000 0.6189687038374705 H
atom -3.5226804834935348 4.5900121327800001 18.7832225016502896 H
atom 4.6513181095232676 0.4980678732900000 18.7816703263538507 H
atom 5.4237821804540554 4.5879421267099998 0.6205208791339095 H
atom 12.1671562930609021 1.3658530715099999 9.6657836147498930 H
atom -2.0920723528235809 3.7201518424800000 9.7364075907378691 H
atom 6.0814588299291792 1.3647748373899999 9.7372612871509094 H
atom 3.9936414600481434 3.7212402486200000 9.6649299183368509 H
atom 9.0331750503188335 3.9003949508700000 19.3661613364191680 H
atom 1.0419252396584879 1.1856150491299999 0.0360298690685908 H
atom 9.2178713131680503 3.9013409487300001 0.0353313901851932 H
atom 0.8572289768092731 1.1846690512700000 19.3668598153025684 H
atom -2.6104120353578808 0.5163368212100000 8.1108920115421039 H
atom 12.6855123253352016 4.5696680927799997 11.2912991939456582 H
atom 4.5108167897543403 0.5143481913000000 11.2925797385652196 H
atom 5.5642835002229809 4.5716618087000001 8.1096114669225408 H
atom -5.7424649782938593 3.0539709946500002 17.8116771792266952 H
atom 15.8175652682711814 2.0320390053499997 1.5905140262610644 H
atom 7.6439678954282817 3.0546270899399999 1.5903200043490098 H
atom 2.4311323945490400 2.0313829100600000 17.8118712011387501 H
